 $CONTRL SCFTYP=MCSCF MPLEVL=0  CITYP=NONE  RUNTYP=ENERGY MULT=1 ICHARG=+0
         ISPHER=+1 NOSYM=0 ITOL=40 ICUT=20 
   $END
 $SYSTEM TIMLIM=200000 MWORDS=250                                         $END
 $BASIS  GBASIS=APVDZ EXTFIL=.TRUE.                                       $END
 $GUESS  GUESS=MOREAD NORB=46 PURIFY=.FALSE.                              $END
 $TRANS  IPURFY=0 DIRTRF=.TRUE. CUTTRF=1E-12                              $END
 $MCSCF  CISTEP=GMCCI ACURCY=1E-8 ENGTOL=1E-12 MAXIT=60 
         FORS=.FALSE. FULLNR=.TRUE.
   $END
 $GMCPT  NMOFZC=0 NMODOC=2 NMOACT=8 NELACT=10 MULT=1 STSYM(1)=a1
         REFTYP=ORMAS 
         NSPACE=1 MSTART(1)=3 MINE(1)=10 MAXE(1)=10
         KSTATE(1)=1 NSOLUT=2
   $END
 $DATA
CO, X Re (1.128323), aug-cc-pVDZ, COM geometry
Cnv 2

 C    6.0   0.0  0.0  -0.64466815843494108201
 O    8.0   0.0  0.0   0.48365484156505891799
 $END
--- CLOSED SHELL ORBITALS --- GENERATED AT Thu Sep 15 18:45:44 2016
CO, X Re (1.128323), aug-cc-pVDZ, COM geometry                                  
E(RHF)=     -112.7546908840, E(NUC)=   22.5117346394,   13 ITERS
 $VEC   
 1  1 3.33336922E-04 7.45840184E-04 5.19190199E-03 1.22120991E-03 0.00000000E+00
 1  2 0.00000000E+00 3.14848949E-04 0.00000000E+00 0.00000000E+00 3.75356468E-03
 1  3 0.00000000E+00 0.00000000E+00 1.90565287E-04 3.14510641E-04 3.14510641E-04
 1  4-6.29021281E-04 0.00000000E+00 0.00000000E+00 0.00000000E+00-7.27339708E-04
 1  5-7.27339708E-04 1.45467942E-03 0.00000000E+00 0.00000000E+00 0.00000000E+00
 1  6 1.00119695E+00 5.10459814E-03-9.70872631E-03-2.48392943E-03 0.00000000E+00
 1  7 0.00000000E+00-2.62812496E-03 0.00000000E+00 0.00000000E+00 3.98714299E-03
 1  8 0.00000000E+00 0.00000000E+00 2.41982204E-04-2.32946745E-04-2.32946745E-04
 1  9 4.65893490E-04 0.00000000E+00 0.00000000E+00 0.00000000E+00 3.02696717E-04
 1 10 3.02696717E-04-6.05393434E-04 0.00000000E+00 0.00000000E+00 0.00000000E+00
 2  1 1.00276934E+00 1.15157471E-02-5.34087970E-03 5.75905236E-04 0.00000000E+00
 2  2 0.00000000E+00 7.26030474E-03 0.00000000E+00 0.00000000E+00-3.51308181E-03
 2  3 0.00000000E+00 0.00000000E+00-1.27809314E-04-8.15997468E-04-8.15997468E-04
 2  4 1.63199494E-03 0.00000000E+00 0.00000000E+00 0.00000000E+00 4.54944457E-04
 2  5 4.54944457E-04-9.09888914E-04 0.00000000E+00 0.00000000E+00 0.00000000E+00
 2  6-8.46824344E-05 2.32302125E-03-5.52104088E-03-6.74501077E-04 0.00000000E+00
 2  7 0.00000000E+00-9.29856430E-04 0.00000000E+00 0.00000000E+00 5.63199689E-03
 2  8 0.00000000E+00 0.00000000E+00-1.23950549E-04-2.36386257E-04-2.36386257E-04
 2  9 4.72772514E-04 0.00000000E+00 0.00000000E+00 0.00000000E+00 1.35081994E-03
 2 10 1.35081994E-03-2.70163989E-03 0.00000000E+00 0.00000000E+00 0.00000000E+00
 3  1-7.28384424E-03 4.61866144E-01-1.66909220E-01 1.31953865E-02-0.00000000E+00
 3  2-0.00000000E+00 3.28546299E-01-0.00000000E+00-0.00000000E+00-1.51809731E-01
 3  3-0.00000000E+00-0.00000000E+00 1.46316890E-03-2.27462311E-02-2.27462311E-02
 3  4 4.54924622E-02-0.00000000E+00-0.00000000E+00-0.00000000E+00 8.37089214E-03
 3  5 8.37089214E-03-1.67417843E-02-0.00000000E+00-0.00000000E+00-0.00000000E+00
 3  6-9.60997347E-03 8.25217945E-01-1.13104295E-01-4.15035892E-02-0.00000000E+00
 3  7-0.00000000E+00-2.35801757E-01-0.00000000E+00-0.00000000E+00 1.00334226E-01
 3  8-0.00000000E+00-0.00000000E+00 2.27293122E-02-1.12665967E-02-1.12665967E-02
 3  9 2.25331934E-02-0.00000000E+00-0.00000000E+00-0.00000000E+00 8.53037257E-03
 3 10 8.53037257E-03-1.70607451E-02-0.00000000E+00-0.00000000E+00-0.00000000E+00
 4  1-7.70378504E-03-5.96306322E-01 1.00514091E-01-3.25528406E-02-0.00000000E+00
 4  2-0.00000000E+00-2.02923269E-01-0.00000000E+00-0.00000000E+00 8.39675661E-02
 4  3-0.00000000E+00-0.00000000E+00-6.35396780E-03 1.21796770E-02 1.21796770E-02
 4  4-2.43593540E-02-0.00000000E+00-0.00000000E+00-0.00000000E+00 1.24483445E-04
 4  5 1.24483445E-04-2.48966889E-04-0.00000000E+00-0.00000000E+00-0.00000000E+00
 4  6 2.18848855E-03 4.66054991E-01 1.52147695E-01 1.18807183E-01-0.00000000E+00
 4  7-0.00000000E+00 7.25172405E-01-0.00000000E+00-0.00000000E+00-1.18007649E-01
 4  8-0.00000000E+00-0.00000000E+00-9.55745278E-03 1.11156751E-02 1.11156751E-02
 4  9-2.22313501E-02-0.00000000E+00-0.00000000E+00-0.00000000E+00-2.20936240E-03
 4 10-2.20936240E-03 4.41872481E-03-0.00000000E+00-0.00000000E+00-0.00000000E+00
 5  1-0.00000000E+00-0.00000000E+00-0.00000000E+00-0.00000000E+00-0.00000000E+00
 5  2 4.36246840E-01-0.00000000E+00-0.00000000E+00-1.07550507E-01-0.00000000E+00
 5  3-0.00000000E+00-5.25119784E-03-0.00000000E+00-0.00000000E+00-0.00000000E+00
 5  4-0.00000000E+00-0.00000000E+00-0.00000000E+00 5.63185816E-02-0.00000000E+00
 5  5-0.00000000E+00-0.00000000E+00-0.00000000E+00-0.00000000E+00-1.04404360E-02
 5  6-0.00000000E+00-0.00000000E+00-0.00000000E+00-0.00000000E+00-0.00000000E+00
 5  7 7.98815691E-01-0.00000000E+00-0.00000000E+00-1.58283308E-03-0.00000000E+00
 5  8-0.00000000E+00 3.74837993E-02-0.00000000E+00-0.00000000E+00-0.00000000E+00
 5  9-0.00000000E+00-0.00000000E+00-0.00000000E+00-2.75711515E-02-0.00000000E+00
 5 10-0.00000000E+00-0.00000000E+00-0.00000000E+00-0.00000000E+00-2.26390220E-02
 6  1-0.00000000E+00-0.00000000E+00-0.00000000E+00-0.00000000E+00 4.36246840E-01
 6  2-0.00000000E+00-0.00000000E+00-1.07550507E-01-0.00000000E+00-0.00000000E+00
 6  3-5.25119784E-03-0.00000000E+00-0.00000000E+00-0.00000000E+00-0.00000000E+00
 6  4-0.00000000E+00-0.00000000E+00 5.63185816E-02-0.00000000E+00-0.00000000E+00
 6  5-0.00000000E+00-0.00000000E+00-0.00000000E+00-1.04404360E-02-0.00000000E+00
 6  6-0.00000000E+00-0.00000000E+00-0.00000000E+00-0.00000000E+00 7.98815691E-01
 6  7-0.00000000E+00-0.00000000E+00-1.58283308E-03-0.00000000E+00-0.00000000E+00
 6  8 3.74837993E-02-0.00000000E+00-0.00000000E+00-0.00000000E+00-0.00000000E+00
 6  9-0.00000000E+00-0.00000000E+00-2.75711515E-02-0.00000000E+00-0.00000000E+00
 6 10-0.00000000E+00-0.00000000E+00-0.00000000E+00-2.26390220E-02-0.00000000E+00
 7  1 8.61040562E-03-5.82314441E-01-1.16781534E-01-2.18434821E-02 0.00000000E+00
 7  2 0.00000000E+00 6.94355195E-01 0.00000000E+00 0.00000000E+00-1.32933168E-01
 7  3 0.00000000E+00 0.00000000E+00 1.23507046E-02-1.92738525E-02-1.92738525E-02
 7  4 3.85477051E-02 0.00000000E+00 0.00000000E+00 0.00000000E+00 2.27943780E-03
 7  5 2.27943780E-03-4.55887560E-03 0.00000000E+00 0.00000000E+00 0.00000000E+00
 7  6 2.70389947E-03 7.55467146E-02-6.42105767E-02-8.99542403E-02 0.00000000E+00
 7  7 0.00000000E+00-3.68736575E-01 0.00000000E+00 0.00000000E+00 7.19115081E-02
 7  8 0.00000000E+00 0.00000000E+00 8.88657124E-03-7.73064915E-03-7.73064915E-03
 7  9 1.54612983E-02 0.00000000E+00 0.00000000E+00 0.00000000E+00 8.88169609E-03
 7 10 8.88169609E-03-1.77633922E-02 0.00000000E+00 0.00000000E+00 0.00000000E+00
 8  1 0.00000000E+00 0.00000000E+00 0.00000000E+00 0.00000000E+00 0.00000000E+00
 8  2 1.27089947E+00 0.00000000E+00 0.00000000E+00-4.12019131E-01 0.00000000E+00
 8  3 0.00000000E+00-1.01968768E-02 0.00000000E+00 0.00000000E+00 0.00000000E+00
 8  4 0.00000000E+00 0.00000000E+00 0.00000000E+00 1.30157590E-03 0.00000000E+00
 8  5 0.00000000E+00 0.00000000E+00 0.00000000E+00 0.00000000E+00 2.29623732E-02
 8  6 0.00000000E+00 0.00000000E+00 0.00000000E+00 0.00000000E+00 0.00000000E+00
 8  7-7.15416388E-01 0.00000000E+00 0.00000000E+00 1.08687346E-01 0.00000000E+00
 8  8 0.00000000E+00-6.70925436E-03 0.00000000E+00 0.00000000E+00 0.00000000E+00
 8  9 0.00000000E+00 0.00000000E+00 0.00000000E+00-7.04033397E-03 0.00000000E+00
 8 10 0.00000000E+00 0.00000000E+00 0.00000000E+00 0.00000000E+00 1.29493840E-02
 9  1 0.00000000E+00 0.00000000E+00 0.00000000E+00 0.00000000E+00 1.28699389E+00
 9  2 0.00000000E+00 0.00000000E+00-4.12020583E-01 0.00000000E+00 0.00000000E+00
 9  3-1.13152154E-02 0.00000000E+00 0.00000000E+00 0.00000000E+00 0.00000000E+00
 9  4 0.00000000E+00 0.00000000E+00 1.48128120E-04 0.00000000E+00 0.00000000E+00
 9  5 0.00000000E+00 0.00000000E+00 0.00000000E+00 2.36359687E-02 0.00000000E+00
 9  6 0.00000000E+00 0.00000000E+00 0.00000000E+00 0.00000000E+00-6.80665427E-01
 9  7 0.00000000E+00 0.00000000E+00 6.27766514E-02 0.00000000E+00 0.00000000E+00
 9  8-1.30321300E-02 0.00000000E+00 0.00000000E+00 0.00000000E+00 0.00000000E+00
 9  9 0.00000000E+00 0.00000000E+00-4.63838894E-03 0.00000000E+00 0.00000000E+00
 9 10 0.00000000E+00 0.00000000E+00 0.00000000E+00 1.77225521E-02 0.00000000E+00
10  1 6.70341969E-02 6.55080100E-01 3.42364837E-01 1.28826266E-01 0.00000000E+00
10  2 0.00000000E+00 1.14239985E+00 0.00000000E+00 0.00000000E+00 2.83071192E-02
10  3 0.00000000E+00 0.00000000E+00 1.23362173E-02 1.07705493E-01 9.00805322E-02
10  4-1.97786026E-01 0.00000000E+00 0.00000000E+00 0.00000000E+00 1.42331192E-02
10  5 2.40147040E-03-1.66345896E-02 0.00000000E+00 0.00000000E+00 0.00000000E+00
10  6-8.00843983E-02-7.80930125E-01-1.95961598E-01-2.34912769E-01 0.00000000E+00
10  7 0.00000000E+00 8.25642885E-01 0.00000000E+00 0.00000000E+00-8.13659418E-02
10  8 0.00000000E+00 0.00000000E+00 5.49899264E-02-9.40251502E-03-1.44999088E-03
10  9 1.08525059E-02 0.00000000E+00 0.00000000E+00 0.00000000E+00-1.88940803E-02
10 10-2.93477488E-02 4.82418291E-02 0.00000000E+00 0.00000000E+00 0.00000000E+00
11  1 2.69881612E-01 1.68197300E+00-9.92345582E-01-1.25358983E-01-0.00000000E+00
11  2-0.00000000E+00-4.17695205E-02-0.00000000E+00-0.00000000E+00 1.14542657E-01
11  3-0.00000000E+00-0.00000000E+00 4.31617483E-02-2.10094775E-02-9.03874137E-03
11  4 3.00482189E-02-0.00000000E+00-0.00000000E+00-0.00000000E+00-7.58452840E-02
11  5 1.03998607E-02 6.54454233E-02-0.00000000E+00-0.00000000E+00-0.00000000E+00
11  6 3.15972589E-02 2.32889245E-01-2.47177246E-02-9.18682591E-01-0.00000000E+00
11  7-0.00000000E+00 3.73037083E-01-0.00000000E+00-0.00000000E+00-7.57024640E-02
11  8-0.00000000E+00-0.00000000E+00 3.25300030E-01-1.68590443E-02-1.61511763E-02
11  9 3.30102206E-02-0.00000000E+00-0.00000000E+00-0.00000000E+00-1.08827868E-01
11 10-6.48678092E-02 1.73695678E-01-0.00000000E+00-0.00000000E+00-0.00000000E+00
12  1 0.00000000E+00 0.00000000E+00 0.00000000E+00 0.00000000E+00 0.00000000E+00
12  2-8.80676968E-01 0.00000000E+00 0.00000000E+00 1.18865233E+00 0.00000000E+00
12  3 0.00000000E+00 8.90205488E-02 0.00000000E+00 0.00000000E+00 0.00000000E+00
12  4 0.00000000E+00 0.00000000E+00 0.00000000E+00-7.40201508E-02 0.00000000E+00
12  5 0.00000000E+00 0.00000000E+00 0.00000000E+00 0.00000000E+00 1.42511622E-01
12  6 0.00000000E+00 0.00000000E+00 0.00000000E+00 0.00000000E+00 0.00000000E+00
12  7-5.13309979E-01 0.00000000E+00 0.00000000E+00 2.20529870E-01 0.00000000E+00
12  8 0.00000000E+00 2.99686757E-01 0.00000000E+00 0.00000000E+00 0.00000000E+00
12  9 0.00000000E+00 0.00000000E+00 0.00000000E+00 4.89084979E-02 0.00000000E+00
12 10 0.00000000E+00 0.00000000E+00 0.00000000E+00 0.00000000E+00 4.82200295E-02
13  1 0.00000000E+00 0.00000000E+00 0.00000000E+00 0.00000000E+00-8.71937103E-01
13  2 0.00000000E+00 0.00000000E+00 1.22584106E+00 0.00000000E+00 0.00000000E+00
13  3 1.01417099E-01 0.00000000E+00 0.00000000E+00 0.00000000E+00 0.00000000E+00
13  4 0.00000000E+00 0.00000000E+00-7.39935220E-02 0.00000000E+00 0.00000000E+00
13  5 0.00000000E+00 0.00000000E+00 0.00000000E+00 1.61165468E-01 0.00000000E+00
13  6 0.00000000E+00 0.00000000E+00 0.00000000E+00 0.00000000E+00-4.96857355E-01
13  7 0.00000000E+00 0.00000000E+00 1.67313908E-01 0.00000000E+00 0.00000000E+00
13  8 2.76184841E-01 0.00000000E+00 0.00000000E+00 0.00000000E+00 0.00000000E+00
13  9 0.00000000E+00 0.00000000E+00 4.53534209E-02 0.00000000E+00 0.00000000E+00
13 10 0.00000000E+00 0.00000000E+00 0.00000000E+00 4.59014218E-02 0.00000000E+00
14  1 1.18758263E-02 1.35279526E-01-8.48549862E-02-1.45900362E-01-0.00000000E+00
14  2-0.00000000E+00-4.63111539E-01-0.00000000E+00-0.00000000E+00 6.09202719E-01
14  3-0.00000000E+00-0.00000000E+00 7.91846555E-02 2.38718724E-01-2.29764463E-01
14  4-8.95426129E-03-0.00000000E+00-0.00000000E+00-0.00000000E+00 5.17245818E-01
14  5-5.48984943E-01 3.17391251E-02-0.00000000E+00-0.00000000E+00-0.00000000E+00
14  6-9.65754097E-03-6.40057643E-02-7.00182210E-02 6.05966880E-02-0.00000000E+00
14  7-0.00000000E+00-8.17491308E-02-0.00000000E+00-0.00000000E+00-6.15203536E-02
14  8-0.00000000E+00-0.00000000E+00-3.07648539E-02 5.39654552E-02-3.25770236E-02
14  9-2.13884316E-02-0.00000000E+00-0.00000000E+00-0.00000000E+00 1.85340379E-01
14 10-1.83747457E-01-1.59292245E-03-0.00000000E+00-0.00000000E+00-0.00000000E+00
15  1 0.00000000E+00 0.00000000E+00 0.00000000E+00 0.00000000E+00 0.00000000E+00
15  2 0.00000000E+00 0.00000000E+00 0.00000000E+00 0.00000000E+00 0.00000000E+00
15  3 0.00000000E+00 0.00000000E+00 0.00000000E+00 0.00000000E+00 0.00000000E+00
15  4 0.00000000E+00 2.93632821E-01 0.00000000E+00 0.00000000E+00 0.00000000E+00
15  5 0.00000000E+00 0.00000000E+00 6.69239481E-01 0.00000000E+00 0.00000000E+00
15  6 0.00000000E+00 0.00000000E+00 0.00000000E+00 0.00000000E+00 0.00000000E+00
15  7 0.00000000E+00 0.00000000E+00 0.00000000E+00 0.00000000E+00 0.00000000E+00
15  8 0.00000000E+00 0.00000000E+00 0.00000000E+00 0.00000000E+00 0.00000000E+00
15  9 0.00000000E+00 5.47589524E-02 0.00000000E+00 0.00000000E+00 0.00000000E+00
15 10 0.00000000E+00 0.00000000E+00 2.23964475E-01 0.00000000E+00 0.00000000E+00
16  1 3.81316236E-04 1.31556294E-01-1.58322971E-01-3.16089442E-01-0.00000000E+00
16  2-0.00000000E+00-1.08501712E+00-0.00000000E+00-0.00000000E+00 1.45098210E+00
16  3-0.00000000E+00-0.00000000E+00 1.97751932E-01-8.02627640E-02 1.18726978E-01
16  4-3.84642136E-02-0.00000000E+00-0.00000000E+00-0.00000000E+00-2.54924331E-01
16  5 1.91560368E-01 6.33639632E-02-0.00000000E+00-0.00000000E+00-0.00000000E+00
16  6-3.14106790E-02-2.29474228E-01-1.66223383E-01 3.59149435E-01-0.00000000E+00
16  7-0.00000000E+00-2.39303927E-01-0.00000000E+00-0.00000000E+00-1.49758257E-01
16  8-0.00000000E+00-0.00000000E+00-1.37498800E-01 1.12218304E-02 5.10514287E-02
16  9-6.22732592E-02-0.00000000E+00-0.00000000E+00-0.00000000E+00-4.32986281E-02
16 10 7.20772387E-02-2.87786106E-02-0.00000000E+00-0.00000000E+00-0.00000000E+00
17  1 0.00000000E+00 0.00000000E+00 0.00000000E+00 0.00000000E+00 2.36651805E-01
17  2 0.00000000E+00 0.00000000E+00-3.27986997E-01 0.00000000E+00 0.00000000E+00
17  3-2.37603339E-01 0.00000000E+00 0.00000000E+00 0.00000000E+00 0.00000000E+00
17  4 0.00000000E+00 0.00000000E+00 2.38861959E-01 0.00000000E+00 0.00000000E+00
17  5 0.00000000E+00 0.00000000E+00 0.00000000E+00 8.39434865E-01 0.00000000E+00
17  6 0.00000000E+00 0.00000000E+00 0.00000000E+00 0.00000000E+00-5.33590027E-01
17  7 0.00000000E+00 0.00000000E+00 2.85498146E-02 0.00000000E+00 0.00000000E+00
17  8 3.36062523E-01 0.00000000E+00 0.00000000E+00 0.00000000E+00 0.00000000E+00
17  9 0.00000000E+00 0.00000000E+00-8.28698209E-03 0.00000000E+00 0.00000000E+00
17 10 0.00000000E+00 0.00000000E+00 0.00000000E+00-6.48102250E-02 0.00000000E+00
18  1 1.33904900E-01 6.73043949E-01-3.60935545E-01-4.47030634E-02 0.00000000E+00
18  2 0.00000000E+00 3.46195655E-01 0.00000000E+00 0.00000000E+00-1.88056319E-01
18  3 0.00000000E+00 0.00000000E+00-8.60366059E-02-6.01519036E-02-6.08281561E-02
18  4 1.20980060E-01 0.00000000E+00 0.00000000E+00 0.00000000E+00-2.30205868E-01
18  5-2.21442032E-01 4.51647899E-01 0.00000000E+00 0.00000000E+00 0.00000000E+00
18  6-5.09736339E-02-4.76467961E-01-4.51752702E-01 7.94101326E-01 0.00000000E+00
18  7 0.00000000E+00-3.48212100E-01 0.00000000E+00 0.00000000E+00 4.37301829E-01
18  8 0.00000000E+00 0.00000000E+00 5.34025655E-01-2.98145786E-02-2.66308084E-02
18  9 5.64453869E-02 0.00000000E+00 0.00000000E+00 0.00000000E+00-1.80893236E-02
18 10-5.24449918E-02 7.05343154E-02 0.00000000E+00 0.00000000E+00 0.00000000E+00
19  1 0.00000000E+00 0.00000000E+00 0.00000000E+00 0.00000000E+00 0.00000000E+00
19  2 2.41219927E-01 0.00000000E+00 0.00000000E+00-3.52268790E-01 0.00000000E+00
19  3 0.00000000E+00-2.55741629E-01 0.00000000E+00 0.00000000E+00 0.00000000E+00
19  4 0.00000000E+00 0.00000000E+00 0.00000000E+00 2.35536198E-01 0.00000000E+00
19  5 0.00000000E+00 0.00000000E+00 0.00000000E+00 0.00000000E+00 8.28487115E-01
19  6 0.00000000E+00 0.00000000E+00 0.00000000E+00 0.00000000E+00 0.00000000E+00
19  7-5.21346060E-01 0.00000000E+00 0.00000000E+00 3.59890887E-02 0.00000000E+00
19  8 0.00000000E+00 3.53019675E-01 0.00000000E+00 0.00000000E+00 0.00000000E+00
19  9 0.00000000E+00 0.00000000E+00 0.00000000E+00-8.06756908E-03 0.00000000E+00
19 10 0.00000000E+00 0.00000000E+00 0.00000000E+00 0.00000000E+00-5.15044639E-02
20  1-0.00000000E+00-0.00000000E+00-0.00000000E+00-0.00000000E+00 6.61657017E-01
20  2-0.00000000E+00-0.00000000E+00-1.47227992E+00-0.00000000E+00-0.00000000E+00
20  3-8.34877002E-01-0.00000000E+00-0.00000000E+00-0.00000000E+00-0.00000000E+00
20  4-0.00000000E+00-0.00000000E+00-3.09920649E-01-0.00000000E+00-0.00000000E+00
20  5-0.00000000E+00-0.00000000E+00-0.00000000E+00-6.80022175E-01-0.00000000E+00
20  6-0.00000000E+00-0.00000000E+00-0.00000000E+00-0.00000000E+00-2.81980647E-02
20  7-0.00000000E+00-0.00000000E+00 5.06119357E-01-0.00000000E+00-0.00000000E+00
20  8 1.64238425E+00-0.00000000E+00-0.00000000E+00-0.00000000E+00-0.00000000E+00
20  9-0.00000000E+00-0.00000000E+00 6.33272204E-02-0.00000000E+00-0.00000000E+00
20 10-0.00000000E+00-0.00000000E+00-0.00000000E+00 2.34333545E-01-0.00000000E+00
21  1-0.00000000E+00-0.00000000E+00-0.00000000E+00-0.00000000E+00-0.00000000E+00
21  2 6.25451769E-01-0.00000000E+00-0.00000000E+00-1.42539630E+00-0.00000000E+00
21  3-0.00000000E+00-9.43339450E-01-0.00000000E+00-0.00000000E+00-0.00000000E+00
21  4-0.00000000E+00-0.00000000E+00-0.00000000E+00-3.18267628E-01-0.00000000E+00
21  5-0.00000000E+00-0.00000000E+00-0.00000000E+00-0.00000000E+00-7.25050938E-01
21  6-0.00000000E+00-0.00000000E+00-0.00000000E+00-0.00000000E+00-0.00000000E+00
21  7-1.74729747E-02-0.00000000E+00-0.00000000E+00 5.22949916E-01-0.00000000E+00
21  8-0.00000000E+00 1.68396330E+00-0.00000000E+00-0.00000000E+00-0.00000000E+00
21  9-0.00000000E+00-0.00000000E+00-0.00000000E+00 6.59636536E-02-0.00000000E+00
21 10-0.00000000E+00-0.00000000E+00-0.00000000E+00-0.00000000E+00 2.14998529E-01
22  1-1.42048361E-01-5.86604011E-01 9.70927624E-01-2.09596433E+00 0.00000000E+00
22  2 0.00000000E+00 1.52778688E-01 0.00000000E+00 0.00000000E+00 5.43019077E-01
22  3 0.00000000E+00 0.00000000E+00-1.02405368E+00 1.41788876E-02 2.27985417E-02
22  4-3.69774293E-02 0.00000000E+00 0.00000000E+00 0.00000000E+00-5.01456950E-01
22  5-4.08785167E-01 9.10242117E-01 0.00000000E+00 0.00000000E+00 0.00000000E+00
22  6-7.13664869E-02-5.10772769E-01-7.99253756E-01 2.30509707E+00 0.00000000E+00
22  7 0.00000000E+00 1.46622533E-01 0.00000000E+00 0.00000000E+00-2.23648508E-01
22  8 0.00000000E+00 0.00000000E+00-5.39501910E-01 2.03948992E-02 1.97372198E-02
22  9-4.01321190E-02 0.00000000E+00 0.00000000E+00 0.00000000E+00 1.38205574E-01
22 10 1.75768433E-02-1.55782417E-01 0.00000000E+00 0.00000000E+00 0.00000000E+00
23  1 0.00000000E+00 0.00000000E+00 0.00000000E+00 0.00000000E+00 5.63176147E-01
23  2 0.00000000E+00 0.00000000E+00-1.22837281E+00 0.00000000E+00 0.00000000E+00
23  3 1.45510093E+00 0.00000000E+00 0.00000000E+00 0.00000000E+00 0.00000000E+00
23  4 0.00000000E+00 0.00000000E+00 1.21548243E-01 0.00000000E+00 0.00000000E+00
23  5 0.00000000E+00 0.00000000E+00 0.00000000E+00 5.30547529E-02 0.00000000E+00
23  6 0.00000000E+00 0.00000000E+00 0.00000000E+00 0.00000000E+00 1.41233230E-01
23  7 0.00000000E+00 0.00000000E+00-1.28754185E-01 0.00000000E+00 0.00000000E+00
23  8-3.40421084E-01 0.00000000E+00 0.00000000E+00 0.00000000E+00 0.00000000E+00
23  9 0.00000000E+00 0.00000000E+00-2.62797680E-02 0.00000000E+00 0.00000000E+00
23 10 0.00000000E+00 0.00000000E+00 0.00000000E+00-3.63195120E-02 0.00000000E+00
24  1 0.00000000E+00 0.00000000E+00 0.00000000E+00 0.00000000E+00 0.00000000E+00
24  2 6.05257822E-01 0.00000000E+00 0.00000000E+00-1.32372274E+00 0.00000000E+00
24  3 0.00000000E+00 1.40063536E+00 0.00000000E+00 0.00000000E+00 0.00000000E+00
24  4 0.00000000E+00 0.00000000E+00 0.00000000E+00 9.58545647E-02 0.00000000E+00
24  5 0.00000000E+00 0.00000000E+00 0.00000000E+00 0.00000000E+00 1.59877339E-02
24  6 0.00000000E+00 0.00000000E+00 0.00000000E+00 0.00000000E+00 0.00000000E+00
24  7 1.36693955E-01 0.00000000E+00 0.00000000E+00-9.24979877E-02 0.00000000E+00
24  8 0.00000000E+00-2.36118386E-01 0.00000000E+00 0.00000000E+00 0.00000000E+00
24  9 0.00000000E+00 0.00000000E+00 0.00000000E+00-2.17490797E-02 0.00000000E+00
24 10 0.00000000E+00 0.00000000E+00 0.00000000E+00 0.00000000E+00-2.38955280E-02
25  1 1.30890060E-01 7.41676764E-01-2.57295208E-01 2.33691175E+00-0.00000000E+00
25  2-0.00000000E+00-6.33502024E-01-0.00000000E+00-0.00000000E+00 1.93594254E+00
25  3-0.00000000E+00-0.00000000E+00-7.64143541E-01 1.09216475E-02 7.44232090E-03
25  4-1.83639684E-02-0.00000000E+00-0.00000000E+00-0.00000000E+00-1.35208264E-01
25  5-1.15698644E-01 2.50906909E-01-0.00000000E+00-0.00000000E+00-0.00000000E+00
25  6 2.26405659E-03-9.16082789E-03-4.61341916E-01-2.17978258E+00-0.00000000E+00
25  7-0.00000000E+00 3.46472511E-02-0.00000000E+00-0.00000000E+00-8.95727418E-02
25  8-0.00000000E+00-0.00000000E+00 9.75288473E-01 1.70226907E-02 1.49470103E-02
25  9-3.19697010E-02-0.00000000E+00-0.00000000E+00-0.00000000E+00-2.67450426E-02
25 10-5.59032971E-02 8.26483398E-02-0.00000000E+00-0.00000000E+00-0.00000000E+00
26  1-1.07204851E-01-6.52156377E-01 2.46272606E-01-2.43543832E+00 0.00000000E+00
26  2 0.00000000E+00-2.14561543E-01 0.00000000E+00 0.00000000E+00-1.40342068E+00
26  3 0.00000000E+00 0.00000000E+00-1.77615792E+00 6.73505341E-02 6.01800161E-02
26  4-1.27530550E-01 0.00000000E+00 0.00000000E+00 0.00000000E+00 8.09305414E-01
26  5 7.37107915E-01-1.54641333E+00 0.00000000E+00 0.00000000E+00 0.00000000E+00
26  6-1.00385711E-02 5.77103177E-02 1.53130508E+00 2.79206872E+00 0.00000000E+00
26  7 0.00000000E+00-4.54680579E-01 0.00000000E+00 0.00000000E+00 1.74031385E-01
26  8 0.00000000E+00 0.00000000E+00 1.24753895E+00-1.12991062E-02-5.61292183E-03
26  9 1.69120280E-02 0.00000000E+00 0.00000000E+00 0.00000000E+00-2.74576783E-02
26 10 8.36381059E-02-5.61804277E-02 0.00000000E+00 0.00000000E+00 0.00000000E+00
27  1 0.00000000E+00 0.00000000E+00 0.00000000E+00 0.00000000E+00 0.00000000E+00
27  2 0.00000000E+00 0.00000000E+00 0.00000000E+00 0.00000000E+00 0.00000000E+00
27  3 0.00000000E+00 0.00000000E+00 0.00000000E+00 0.00000000E+00 0.00000000E+00
27  4 0.00000000E+00 1.01476499E-02 0.00000000E+00 0.00000000E+00 0.00000000E+00
27  5 0.00000000E+00 0.00000000E+00-7.87030561E-01 0.00000000E+00 0.00000000E+00
27  6 0.00000000E+00 0.00000000E+00 0.00000000E+00 0.00000000E+00 0.00000000E+00
27  7 0.00000000E+00 0.00000000E+00 0.00000000E+00 0.00000000E+00 0.00000000E+00
27  8 0.00000000E+00 0.00000000E+00 0.00000000E+00 0.00000000E+00 0.00000000E+00
27  9 0.00000000E+00 8.95934865E-02 0.00000000E+00 0.00000000E+00 0.00000000E+00
27 10 0.00000000E+00 0.00000000E+00 1.03618448E+00 0.00000000E+00 0.00000000E+00
28  1-1.12339148E-02-7.48724330E-02 2.25620837E-01 1.35954473E-01 0.00000000E+00
28  2 0.00000000E+00 2.07341777E-02 0.00000000E+00 0.00000000E+00-1.48261927E-01
28  3 0.00000000E+00 0.00000000E+00 1.56604871E-02 1.60582962E-02-4.07883802E-03
28  4-1.19794581E-02 0.00000000E+00 0.00000000E+00 0.00000000E+00-5.95995762E-01
28  5 7.60363983E-01-1.64368221E-01 0.00000000E+00 0.00000000E+00 0.00000000E+00
28  6-6.40322442E-03-1.83775109E-03 2.30313872E-01-3.29017367E-01 0.00000000E+00
28  7 0.00000000E+00-1.66189355E-02 0.00000000E+00 0.00000000E+00 4.07920051E-02
28  8 0.00000000E+00 0.00000000E+00 2.32995438E-01 7.68672834E-02-7.84929224E-02
28  9 1.62563906E-03 0.00000000E+00 0.00000000E+00 0.00000000E+00 9.11315366E-01
28 10-8.71387478E-01-3.99278882E-02 0.00000000E+00 0.00000000E+00 0.00000000E+00
29  1 3.75648285E-01 1.64484079E+00-4.66786296E+00-2.46455744E+00-0.00000000E+00
29  2-0.00000000E+00-1.97314853E-01-0.00000000E+00-0.00000000E+00-6.00442291E-01
29  3-0.00000000E+00-0.00000000E+00-5.82351284E-01-1.00123141E-01-7.57647316E-02
29  4 1.75887873E-01-0.00000000E+00-0.00000000E+00-0.00000000E+00 9.76587629E-02
29  5 1.58478855E-01-2.56137618E-01-0.00000000E+00-0.00000000E+00-0.00000000E+00
29  6-4.47234187E-04-3.40529949E-02 1.57631519E-01 4.89467755E+00-0.00000000E+00
29  7-0.00000000E+00-3.26015402E-01-0.00000000E+00-0.00000000E+00 2.57932501E-01
29  8-0.00000000E+00-0.00000000E+00-2.22024223E+00-3.11304181E-02-3.90893649E-02
29  9 7.02197830E-02-0.00000000E+00-0.00000000E+00-0.00000000E+00-1.87698145E-01
29 10-2.98036088E-01 4.85734233E-01-0.00000000E+00-0.00000000E+00-0.00000000E+00
30  1 0.00000000E+00 0.00000000E+00 0.00000000E+00 0.00000000E+00-3.24024830E-01
30  2 0.00000000E+00 0.00000000E+00-5.53453132E-01 0.00000000E+00 0.00000000E+00
30  3-1.21383500E+00 0.00000000E+00 0.00000000E+00 0.00000000E+00 0.00000000E+00
30  4 0.00000000E+00 0.00000000E+00 3.02288572E-01 0.00000000E+00 0.00000000E+00
30  5 0.00000000E+00 0.00000000E+00 0.00000000E+00-9.46654107E-01 0.00000000E+00
30  6 0.00000000E+00 0.00000000E+00 0.00000000E+00 0.00000000E+00 4.10579382E-01
30  7 0.00000000E+00 0.00000000E+00-4.45107436E-01 0.00000000E+00 0.00000000E+00
30  8 2.09068779E+00 0.00000000E+00 0.00000000E+00 0.00000000E+00 0.00000000E+00
30  9 0.00000000E+00 0.00000000E+00-1.02455341E-01 0.00000000E+00 0.00000000E+00
30 10 0.00000000E+00 0.00000000E+00 0.00000000E+00-7.38165975E-01 0.00000000E+00
31  1-0.00000000E+00-0.00000000E+00-0.00000000E+00-0.00000000E+00-0.00000000E+00
31  2-3.27531181E-01-0.00000000E+00-0.00000000E+00-5.09399969E-01-0.00000000E+00
31  3-0.00000000E+00-1.19527587E+00-0.00000000E+00-0.00000000E+00-0.00000000E+00
31  4-0.00000000E+00-0.00000000E+00-0.00000000E+00 3.03255172E-01-0.00000000E+00
31  5-0.00000000E+00-0.00000000E+00-0.00000000E+00-0.00000000E+00-9.06268385E-01
31  6-0.00000000E+00-0.00000000E+00-0.00000000E+00-0.00000000E+00-0.00000000E+00
31  7 4.18534189E-01-0.00000000E+00-0.00000000E+00-4.92571887E-01-0.00000000E+00
31  8-0.00000000E+00 2.06414347E+00-0.00000000E+00-0.00000000E+00-0.00000000E+00
31  9-0.00000000E+00-0.00000000E+00-0.00000000E+00-1.03267655E-01-0.00000000E+00
31 10-0.00000000E+00-0.00000000E+00-0.00000000E+00-0.00000000E+00-7.32978363E-01
32  1-1.36127118E-02-5.44760824E-02-1.36009349E-01-8.33578377E-02-0.00000000E+00
32  2-0.00000000E+00-4.82225746E-02-0.00000000E+00-0.00000000E+00-2.37299664E-02
32  3-0.00000000E+00-0.00000000E+00-4.65719413E-03 9.92193535E-01-9.65784352E-01
32  4-2.64091830E-02-0.00000000E+00-0.00000000E+00-0.00000000E+00-6.06495357E-01
32  5 5.83818031E-01 2.26773259E-02-0.00000000E+00-0.00000000E+00-0.00000000E+00
32  6 2.64233944E-03 1.50790486E-02 2.71730508E-02 2.02391531E-01-0.00000000E+00
32  7-0.00000000E+00-2.05940413E-02-0.00000000E+00-0.00000000E+00-5.86662824E-02
32  8-0.00000000E+00-0.00000000E+00-8.01016057E-02 1.41331072E-02-1.23527245E-02
32  9-1.78038264E-03-0.00000000E+00-0.00000000E+00-0.00000000E+00-2.41609267E-01
32 10 2.08317946E-01 3.32913207E-02-0.00000000E+00-0.00000000E+00-0.00000000E+00
33  1-0.00000000E+00-0.00000000E+00-0.00000000E+00-0.00000000E+00-0.00000000E+00
33  2-0.00000000E+00-0.00000000E+00-0.00000000E+00-0.00000000E+00-0.00000000E+00
33  3-0.00000000E+00-0.00000000E+00-0.00000000E+00-0.00000000E+00-0.00000000E+00
33  4-0.00000000E+00 1.13102165E+00-0.00000000E+00-0.00000000E+00-0.00000000E+00
33  5-0.00000000E+00-0.00000000E+00-6.87291673E-01-0.00000000E+00-0.00000000E+00
33  6-0.00000000E+00-0.00000000E+00-0.00000000E+00-0.00000000E+00-0.00000000E+00
33  7-0.00000000E+00-0.00000000E+00-0.00000000E+00-0.00000000E+00-0.00000000E+00
33  8-0.00000000E+00-0.00000000E+00-0.00000000E+00-0.00000000E+00-0.00000000E+00
33  9-0.00000000E+00 1.52714764E-02-0.00000000E+00-0.00000000E+00-0.00000000E+00
33 10-0.00000000E+00-0.00000000E+00-2.60245326E-01-0.00000000E+00-0.00000000E+00
34  1 0.00000000E+00 0.00000000E+00 0.00000000E+00 0.00000000E+00-2.90213546E-01
34  2 0.00000000E+00 0.00000000E+00-1.19531169E+00 0.00000000E+00 0.00000000E+00
34  3-1.07034530E-01 0.00000000E+00 0.00000000E+00 0.00000000E+00 0.00000000E+00
34  4 0.00000000E+00 0.00000000E+00 3.53176582E-01 0.00000000E+00 0.00000000E+00
34  5 0.00000000E+00 0.00000000E+00 0.00000000E+00-1.49712788E+00 0.00000000E+00
34  6 0.00000000E+00 0.00000000E+00 0.00000000E+00 0.00000000E+00-1.18772833E+00
34  7 0.00000000E+00 0.00000000E+00 2.66353145E+00 0.00000000E+00 0.00000000E+00
34  8 3.46033872E-01 0.00000000E+00 0.00000000E+00 0.00000000E+00 0.00000000E+00
34  9 0.00000000E+00 0.00000000E+00-3.73869037E-02 0.00000000E+00 0.00000000E+00
34 10 0.00000000E+00 0.00000000E+00 0.00000000E+00-4.40466182E-01 0.00000000E+00
35  1-0.00000000E+00-0.00000000E+00-0.00000000E+00-0.00000000E+00-0.00000000E+00
35  2-2.86436359E-01-0.00000000E+00-0.00000000E+00-1.18766106E+00-0.00000000E+00
35  3-0.00000000E+00-1.22884246E-01-0.00000000E+00-0.00000000E+00-0.00000000E+00
35  4-0.00000000E+00-0.00000000E+00-0.00000000E+00 3.84796847E-01-0.00000000E+00
35  5-0.00000000E+00-0.00000000E+00-0.00000000E+00-0.00000000E+00-1.50506998E+00
35  6-0.00000000E+00-0.00000000E+00-0.00000000E+00-0.00000000E+00-0.00000000E+00
35  7-1.15993187E+00-0.00000000E+00-0.00000000E+00 2.61558391E+00-0.00000000E+00
35  8-0.00000000E+00 3.59399277E-01-0.00000000E+00-0.00000000E+00-0.00000000E+00
35  9-0.00000000E+00-0.00000000E+00-0.00000000E+00-3.96938173E-02-0.00000000E+00
35 10-0.00000000E+00-0.00000000E+00-0.00000000E+00-0.00000000E+00-4.24376200E-01
36  1 2.75336269E-01 1.19849048E+00-7.84969854E+00-4.19243412E+00 0.00000000E+00
36  2 0.00000000E+00-5.23682579E-01 0.00000000E+00 0.00000000E+00-3.54736128E+00
36  3 0.00000000E+00 0.00000000E+00-1.23935342E+00 1.31225925E-01 1.49083202E-01
36  4-2.80309127E-01 0.00000000E+00 0.00000000E+00 0.00000000E+00 3.82120602E-01
36  5 3.80362139E-01-7.62482741E-01 0.00000000E+00 0.00000000E+00 0.00000000E+00
36  6 5.98702465E-02 5.32830550E-01 2.16521059E+00 8.80907161E+00 0.00000000E+00