 $CONTRL SCFTYP=NONE  MPLEVL=0  CITYP=ORMAS RUNTYP=ENERGY MULT=1 ICHARG=+0
         ISPHER=+1 NOSYM=0 ITOL=40 ICUT=20
   $END
 $SYSTEM TIMLIM=200000 MWORDS=250                                         $END
 $BASIS  GBASIS=APVDZ EXTFIL=.TRUE.                                       $END
 $GUESS  GUESS=MOREAD NORB=46 PURIFY=.FALSE. TOLE=0.0 TOLZ=0.0            $END
 $TRANS  IPURFY=0 DIRTRF=.TRUE. CUTTRF=1E-12                              $END
 $CIDET  NCORE=2 NACT=8  NELS=10 SZ=0.0 GROUP=C2v STSYM=A1
         NSTATE=2 PRTTOL=-1 ITERMX=400 MXXPAN=50 CLOBBR=.TRUE. CVGTOL=1E-9
   $END
 $ORMAS  NSPACE=1 MSTART(1)=3,11 MINE(1)=9,0 MAXE(1)=10,1                 $END
 $DATA
CO, X Re (1.128323), aug-cc-pVDZ, COM geometry
Cnv 2

 C    6.0   0.0  0.0  -0.64466815843494108201
 O    8.0   0.0  0.0   0.48365484156505891799
 $END
--- OPTIMIZED MCSCF MO-S --- GENERATED AT Thu Sep 15 19:56:31 2016
CO, X Re (1.128323), aug-cc-pVDZ, COM geometry                                  
E(MCSCF)=     -112.8859736335, E(NUC)=       22.5117346394
 $VEC   
 1  1-1.71322500E-03-6.68075529E-03 6.62105528E-03 1.34698651E-03 0.00000000E+00
 1  2 0.00000000E+00 5.23112800E-03 0.00000000E+00 0.00000000E+00 5.04641511E-03
 1  3 0.00000000E+00 0.00000000E+00 5.19521932E-04 4.88786598E-04 4.88786643E-04
 1  4-9.77573242E-04 0.00000000E+00 0.00000000E+00 0.00000000E+00-1.08301504E-03
 1  5-1.08301506E-03 2.16603010E-03 0.00000000E+00 0.00000000E+00 0.00000000E+00
 1  6 1.00012876E+00-4.13755781E-02-1.18352660E-02-6.02762090E-03 0.00000000E+00
 1  7 0.00000000E+00-2.34277301E-02 0.00000000E+00 0.00000000E+00 5.14955096E-03
 1  8 0.00000000E+00 0.00000000E+00-1.69069633E-04-2.79682339E-04-2.79682311E-04
 1  9 5.59364650E-04 0.00000000E+00 0.00000000E+00 0.00000000E+00 1.85767182E-04
 1 10 1.85767197E-04-3.71534380E-04 0.00000000E+00 0.00000000E+00 0.00000000E+00
 2  1 1.00271401E+00-1.76343744E-02-7.55700042E-03-7.72700976E-04 0.00000000E+00
 2  2 0.00000000E+00 2.48378674E-02 0.00000000E+00 0.00000000E+00-5.06598461E-03
 2  3 0.00000000E+00 0.00000000E+00 2.94794183E-04-1.06716162E-03-1.06716169E-03
 2  4 2.13432331E-03 0.00000000E+00 0.00000000E+00 0.00000000E+00 3.44842968E-04
 2  5 3.44842902E-04-6.89685870E-04 0.00000000E+00 0.00000000E+00 0.00000000E+00
 2  6 1.65548706E-03-1.07173235E-02-5.34169355E-03-2.78640172E-03 0.00000000E+00
 2  7 0.00000000E+00-8.41199018E-03 0.00000000E+00 0.00000000E+00 6.18288209E-03
 2  8 0.00000000E+00 0.00000000E+00-2.70873663E-04-2.47806275E-04-2.47806287E-04
 2  9 4.95612562E-04 0.00000000E+00 0.00000000E+00 0.00000000E+00 1.53337809E-03
 2 10 1.53337805E-03-3.06675614E-03 0.00000000E+00 0.00000000E+00 0.00000000E+00
 3  1 1.33629932E-02 4.63138010E-01-1.61827288E-01 1.61726234E-02 0.00000000E+00
 3  2 0.00000000E+00 3.30987755E-01 0.00000000E+00 0.00000000E+00-1.51469822E-01
 3  3 0.00000000E+00 0.00000000E+00 2.49342145E-03-2.14113454E-02-2.14113455E-02
 3  4 4.28226909E-02 0.00000000E+00 0.00000000E+00 0.00000000E+00 8.44557981E-03
 3  5 8.44557997E-03-1.68911598E-02 0.00000000E+00 0.00000000E+00 0.00000000E+00
 3  6 3.13616342E-02 8.31921657E-01-1.22153376E-01-4.85621262E-02 0.00000000E+00
 3  7 0.00000000E+00-2.39207206E-01 0.00000000E+00 0.00000000E+00 1.06753035E-01
 3  8 0.00000000E+00 0.00000000E+00 2.32350980E-02-1.07021412E-02-1.07021413E-02
 3  9 2.14042825E-02 0.00000000E+00 0.00000000E+00 0.00000000E+00 8.75547044E-03
 3 10 8.75547029E-03-1.75109407E-02 0.00000000E+00 0.00000000E+00 0.00000000E+00
 4  1-7.54627809E-03-5.86194487E-01 8.65474069E-02-3.48430214E-02 0.00000000E+00
 4  2 0.00000000E+00-2.02917308E-01 0.00000000E+00 0.00000000E+00 7.87423552E-02
 4  3 0.00000000E+00 0.00000000E+00-6.22138361E-03 1.02698047E-02 1.02698046E-02
 4  4-2.05396093E-02 0.00000000E+00 0.00000000E+00 0.00000000E+00 7.31812953E-04
 4  5 7.31812898E-04-1.46362585E-03 0.00000000E+00 0.00000000E+00 0.00000000E+00
 4  6 3.45075714E-02 4.63844980E-01 1.60769486E-01 1.16344630E-01 0.00000000E+00
 4  7 0.00000000E+00 7.31898613E-01 0.00000000E+00 0.00000000E+00-1.25792751E-01
 4  8 0.00000000E+00 0.00000000E+00-9.56648322E-03 1.05301476E-02 1.05301474E-02
 4  9-2.10602950E-02 0.00000000E+00 0.00000000E+00 0.00000000E+00-2.48642264E-03
 4 10-2.48642266E-03 4.97284530E-03 0.00000000E+00 0.00000000E+00 0.00000000E+00
 5  1 0.00000000E+00 0.00000000E+00 0.00000000E+00 0.00000000E+00 0.00000000E+00
 5  2 4.50926469E-01 0.00000000E+00 0.00000000E+00-1.05453875E-01 0.00000000E+00
 5  3 0.00000000E+00-3.50675895E-03 0.00000000E+00 0.00000000E+00 0.00000000E+00
 5  4 0.00000000E+00 0.00000000E+00 0.00000000E+00 5.26432663E-02 0.00000000E+00
 5  5 0.00000000E+00 0.00000000E+00 0.00000000E+00 0.00000000E+00-9.35495292E-03
 5  6 0.00000000E+00 0.00000000E+00 0.00000000E+00 0.00000000E+00 0.00000000E+00
 5  7 8.26752160E-01 0.00000000E+00 0.00000000E+00-3.98167239E-02 0.00000000E+00
 5  8 0.00000000E+00 2.92888403E-02 0.00000000E+00 0.00000000E+00 0.00000000E+00
 5  9 0.00000000E+00 0.00000000E+00 0.00000000E+00-2.53477868E-02 0.00000000E+00
 5 10 0.00000000E+00 0.00000000E+00 0.00000000E+00 0.00000000E+00-1.86896429E-02
 6  1 0.00000000E+00 0.00000000E+00 0.00000000E+00 0.00000000E+00 4.50569159E-01
 6  2 0.00000000E+00 0.00000000E+00-1.05372816E-01 0.00000000E+00 0.00000000E+00
 6  3-3.50004083E-03 0.00000000E+00 0.00000000E+00 0.00000000E+00 0.00000000E+00
 6  4 0.00000000E+00 0.00000000E+00 5.26239584E-02 0.00000000E+00 0.00000000E+00
 6  5 0.00000000E+00 0.00000000E+00 0.00000000E+00-9.35902284E-03 0.00000000E+00
 6  6 0.00000000E+00 0.00000000E+00 0.00000000E+00 0.00000000E+00 8.27125422E-01
 6  7 0.00000000E+00 0.00000000E+00-3.99967631E-02 0.00000000E+00 0.00000000E+00
 6  8 2.92740875E-02 0.00000000E+00 0.00000000E+00 0.00000000E+00 0.00000000E+00
 6  9 0.00000000E+00 0.00000000E+00-2.53423115E-02 0.00000000E+00 0.00000000E+00
 6 10 0.00000000E+00 0.00000000E+00 0.00000000E+00-1.86731788E-02 0.00000000E+00
 7  1-2.15921973E-02-5.54276809E-01-1.34567828E-01-2.59407427E-02 0.00000000E+00
 7  2 0.00000000E+00 6.94357399E-01 0.00000000E+00 0.00000000E+00-1.31830459E-01
 7  3 0.00000000E+00 0.00000000E+00 1.39558627E-02-2.00885069E-02-2.00885066E-02
 7  4 4.01770136E-02 0.00000000E+00 0.00000000E+00 0.00000000E+00 1.22760758E-03
 7  5 1.22760670E-03-2.45521428E-03 0.00000000E+00 0.00000000E+00 0.00000000E+00
 7  6-1.32818625E-02 7.64501419E-02-6.57165887E-02-9.65402972E-02 0.00000000E+00
 7  7 0.00000000E+00-3.64332769E-01 0.00000000E+00 0.00000000E+00 7.27484584E-02
 7  8 0.00000000E+00 0.00000000E+00 1.11106391E-02-7.20363029E-03-7.20363020E-03
 7  9 1.44072605E-02 0.00000000E+00 0.00000000E+00 0.00000000E+00 9.26509718E-03
 7 10 9.26509769E-03-1.85301949E-02 0.00000000E+00 0.00000000E+00 0.00000000E+00
 8  1-0.00000000E+00-0.00000000E+00-0.00000000E+00-0.00000000E+00-0.00000000E+00
 8  2-9.70272268E-01-0.00000000E+00-0.00000000E+00 2.20112219E-01-0.00000000E+00
 8  3-0.00000000E+00 1.82443848E-02-0.00000000E+00-0.00000000E+00-0.00000000E+00
 8  4-0.00000000E+00-0.00000000E+00-0.00000000E+00-5.24253035E-02-0.00000000E+00
 8  5-0.00000000E+00-0.00000000E+00-0.00000000E+00-0.00000000E+00-1.10545434E-02
 8  6-0.00000000E+00-0.00000000E+00-0.00000000E+00-0.00000000E+00-0.00000000E+00
 8  7 1.01383031E+00-0.00000000E+00-0.00000000E+00-4.88945243E-01-0.00000000E+00
 8  8-0.00000000E+00-4.00590928E-02-0.00000000E+00-0.00000000E+00-0.00000000E+00
 8  9-0.00000000E+00-0.00000000E+00-0.00000000E+00 1.48648299E-02-0.00000000E+00
 8 10-0.00000000E+00-0.00000000E+00-0.00000000E+00-0.00000000E+00 4.47085502E-02
 9  1-0.00000000E+00-0.00000000E+00-0.00000000E+00-0.00000000E+00-9.70438247E-01
 9  2-0.00000000E+00-0.00000000E+00 2.20151038E-01-0.00000000E+00-0.00000000E+00
 9  3 1.82456696E-02-0.00000000E+00-0.00000000E+00-0.00000000E+00-0.00000000E+00
 9  4-0.00000000E+00-0.00000000E+00-5.24446845E-02-0.00000000E+00-0.00000000E+00
 9  5-0.00000000E+00-0.00000000E+00-0.00000000E+00-1.10510983E-02-0.00000000E+00
 9  6-0.00000000E+00-0.00000000E+00-0.00000000E+00-0.00000000E+00 1.01352581E+00
 9  7-0.00000000E+00-0.00000000E+00-4.88930548E-01-0.00000000E+00-0.00000000E+00
 9  8-4.00698733E-02-0.00000000E+00-0.00000000E+00-0.00000000E+00-0.00000000E+00
 9  9-0.00000000E+00-0.00000000E+00 1.48741625E-02-0.00000000E+00-0.00000000E+00
 9 10-0.00000000E+00-0.00000000E+00-0.00000000E+00 4.47154292E-02-0.00000000E+00
10  1 1.28105632E-01 1.05160275E+00-2.70221371E-01 6.20334993E-02 0.00000000E+00
10  2 0.00000000E+00 1.31874954E+00 0.00000000E+00 0.00000000E+00-3.35136957E-01
10  3 0.00000000E+00 0.00000000E+00 1.35479917E-02-4.14154900E-02-4.14154958E-02
10  4 8.28309858E-02 0.00000000E+00 0.00000000E+00 0.00000000E+00-1.18585945E-02
10  5-1.18585925E-02 2.37171870E-02 0.00000000E+00 0.00000000E+00 0.00000000E+00
10  6-1.58186339E-01-1.01086575E+00 1.91537233E-01-2.30831189E-01 0.00000000E+00
10  7 0.00000000E+00 1.28295438E+00 0.00000000E+00 0.00000000E+00-5.76728215E-01
10  8 0.00000000E+00 0.00000000E+00 3.12270592E-02-8.89545081E-03-8.89546744E-03
10  9 1.77909183E-02 0.00000000E+00 0.00000000E+00 0.00000000E+00-2.00478903E-02
10 10-2.00478792E-02 4.00957695E-02 0.00000000E+00 0.00000000E+00 0.00000000E+00
11  1 1.60736027E-02 1.41659702E-01-9.67230533E-01-3.20037397E+00-0.00000000E+00
11  2-0.00000000E+00-1.28614044E-01-0.00000000E+00-0.00000000E+00-6.75842117E-01
11  3-0.00000000E+00-0.00000000E+00-1.24534749E+00 9.95848430E-03 9.95848427E-03
11  4-1.99169686E-02-0.00000000E+00-0.00000000E+00-0.00000000E+00 8.15344533E-02
11  5 8.15344533E-02-1.63068907E-01-0.00000000E+00-0.00000000E+00-0.00000000E+00
11  6-1.14530096E-02 6.79619154E-02 4.10204115E-01 3.37838837E+00-0.00000000E+00
11  7-0.00000000E+00 8.70333594E-02-0.00000000E+00-0.00000000E+00-2.53684892E-01
11  8-0.00000000E+00-0.00000000E+00-7.50550116E-01-7.00450651E-04-7.00450680E-04
11  9 1.40090133E-03-0.00000000E+00-0.00000000E+00-0.00000000E+00-2.17371272E-02
11 10-2.17371272E-02 4.34742545E-02-0.00000000E+00-0.00000000E+00-0.00000000E+00
12  1 0.00000000E+00 0.00000000E+00 0.00000000E+00 0.00000000E+00 0.00000000E+00
12  2-1.54004297E-01 0.00000000E+00 0.00000000E+00-1.81156761E-01 0.00000000E+00
12  3 0.00000000E+00 1.49535323E+00 0.00000000E+00 0.00000000E+00 0.00000000E+00
12  4 0.00000000E+00 0.00000000E+00 0.00000000E+00-2.88461620E-02 0.00000000E+00
12  5 0.00000000E+00 0.00000000E+00 0.00000000E+00 0.00000000E+00 7.66994722E-02
12  6 0.00000000E+00 0.00000000E+00 0.00000000E+00 0.00000000E+00 0.00000000E+00
12  7-1.66163894E-02 0.00000000E+00 0.00000000E+00 3.11256453E-02 0.00000000E+00
12  8 0.00000000E+00-5.34503905E-01 0.00000000E+00 0.00000000E+00 0.00000000E+00
12  9 0.00000000E+00 0.00000000E+00 0.00000000E+00 4.31684183E-03 0.00000000E+00
12 10 0.00000000E+00 0.00000000E+00 0.00000000E+00 0.00000000E+00 2.19435596E-03
13  1 0.00000000E+00 0.00000000E+00 0.00000000E+00 0.00000000E+00-1.54004300E-01
13  2 0.00000000E+00 0.00000000E+00-1.81156763E-01 0.00000000E+00 0.00000000E+00
13  3 1.49535323E+00 0.00000000E+00 0.00000000E+00 0.00000000E+00 0.00000000E+00
13  4 0.00000000E+00 0.00000000E+00-2.88461619E-02 0.00000000E+00 0.00000000E+00
13  5 0.00000000E+00 0.00000000E+00 0.00000000E+00 7.66994723E-02 0.00000000E+00
13  6 0.00000000E+00 0.00000000E+00 0.00000000E+00 0.00000000E+00-1.66163876E-02
13  7 0.00000000E+00 0.00000000E+00 3.11256458E-02 0.00000000E+00 0.00000000E+00
13  8-5.34503903E-01 0.00000000E+00 0.00000000E+00 0.00000000E+00 0.00000000E+00
13  9 0.00000000E+00 0.00000000E+00 4.31684188E-03 0.00000000E+00 0.00000000E+00
13 10 0.00000000E+00 0.00000000E+00 0.00000000E+00 2.19435598E-03 0.00000000E+00
14  1-1.64015435E-02 9.33499298E-02-1.60403576E-01-1.13617425E+00-0.00000000E+00
14  2-0.00000000E+00-1.92539536E-01-0.00000000E+00-0.00000000E+00-4.43525475E-01
14  3-0.00000000E+00-0.00000000E+00 1.15542961E+00 1.61720586E-02 1.61720588E-02
14  4-3.23441173E-02-0.00000000E+00-0.00000000E+00-0.00000000E+00-1.32123755E-02
14  5-1.32123759E-02 2.64247515E-02-0.00000000E+00-0.00000000E+00-0.00000000E+00
14  6-1.00661169E-02-4.53798508E-02 2.45181094E-01 5.39365063E-01-0.00000000E+00
14  7-0.00000000E+00-2.20534106E-02-0.00000000E+00-0.00000000E+00-1.02878289E-01
14  8-0.00000000E+00-0.00000000E+00-6.12351990E-01 3.74684551E-04 3.74684795E-04
14  9-7.49369346E-04-0.00000000E+00-0.00000000E+00-0.00000000E+00-8.54760396E-03
14 10-8.54760418E-03 1.70952081E-02-0.00000000E+00-0.00000000E+00-0.00000000E+00
15  1-2.13628186E-02 1.14842748E-01 1.13334057E+00-3.61678627E-01-0.00000000E+00
15  2-0.00000000E+00 5.97559034E-02-0.00000000E+00-0.00000000E+00-2.96703213E-01
15  3-0.00000000E+00-0.00000000E+00-9.86344832E-01-3.26913489E-03-3.26913504E-03
15  4 6.53826992E-03-0.00000000E+00-0.00000000E+00-0.00000000E+00 1.21839375E-01
15  5 1.21839375E-01-2.43678750E-01-0.00000000E+00-0.00000000E+00-0.00000000E+00
15  6-8.47916885E-03-9.82970657E-02 1.27494442E-01 1.07851146E-02-0.00000000E+00
15  7-0.00000000E+00-5.16325659E-02-0.00000000E+00-0.00000000E+00-5.94515345E-02
15  8-0.00000000E+00-0.00000000E+00 2.02694029E+00-1.36628273E-02-1.36628274E-02
15  9 2.73256547E-02-0.00000000E+00-0.00000000E+00-0.00000000E+00 3.92536322E-02
15 10 3.92536323E-02-7.85072645E-02-0.00000000E+00-0.00000000E+00-0.00000000E+00
16  1-0.00000000E+00-0.00000000E+00-0.00000000E+00-0.00000000E+00-0.00000000E+00
16  2-1.43713052E-01-0.00000000E+00-0.00000000E+00-5.58131507E-01-0.00000000E+00
16  3-0.00000000E+00-1.15828766E+00-0.00000000E+00-0.00000000E+00-0.00000000E+00
16  4-0.00000000E+00-0.00000000E+00-0.00000000E+00-1.88145419E-02-0.00000000E+00
16  5-0.00000000E+00-0.00000000E+00-0.00000000E+00-0.00000000E+00-2.61418471E-01
16  6-0.00000000E+00-0.00000000E+00-0.00000000E+00-0.00000000E+00-0.00000000E+00
16  7-1.39904825E-01-0.00000000E+00-0.00000000E+00 2.05663273E-02-0.00000000E+00
16  8-0.00000000E+00 2.16533680E+00-0.00000000E+00-0.00000000E+00-0.00000000E+00
16  9-0.00000000E+00-0.00000000E+00-0.00000000E+00 2.76218910E-02-0.00000000E+00
16 10-0.00000000E+00-0.00000000E+00-0.00000000E+00-0.00000000E+00-1.13291427E-01
17  1-0.00000000E+00-0.00000000E+00-0.00000000E+00-0.00000000E+00-1.43713052E-01
17  2-0.00000000E+00-0.00000000E+00-5.58131507E-01-0.00000000E+00-0.00000000E+00
17  3-1.15828766E+00-0.00000000E+00-0.00000000E+00-0.00000000E+00-0.00000000E+00
17  4-0.00000000E+00-0.00000000E+00-1.88145419E-02-0.00000000E+00-0.00000000E+00
17  5-0.00000000E+00-0.00000000E+00-0.00000000E+00-2.61418471E-01-0.00000000E+00
17  6-0.00000000E+00-0.00000000E+00-0.00000000E+00-0.00000000E+00-1.39904825E-01
17  7-0.00000000E+00-0.00000000E+00 2.05663272E-02-0.00000000E+00-0.00000000E+00
17  8 2.16533680E+00-0.00000000E+00-0.00000000E+00-0.00000000E+00-0.00000000E+00
17  9-0.00000000E+00-0.00000000E+00 2.76218910E-02-0.00000000E+00-0.00000000E+00
17 10-0.00000000E+00-0.00000000E+00-0.00000000E+00-1.13291427E-01-0.00000000E+00
18  1 3.90333047E-02-4.80954526E-02-3.12178592E+00-4.07619075E+00 0.00000000E+00
18  2 0.00000000E+00-6.86617176E-02 0.00000000E+00 0.00000000E+00-1.51604829E+00
18  3 0.00000000E+00 0.00000000E+00-1.40671823E+00 2.91409561E-02 2.91409564E-02
18  4-5.82819125E-02 0.00000000E+00 0.00000000E+00 0.00000000E+00 2.78046599E-01
18  5 2.78046597E-01-5.56093196E-01 0.00000000E+00 0.00000000E+00 0.00000000E+00
18  6-3.08088300E-02-3.35646388E-01 5.59393031E-01 7.30407273E+00 0.00000000E+00
18  7 0.00000000E+00-1.35195584E-01 0.00000000E+00 0.00000000E+00-7.51927503E-01
18  8 0.00000000E+00 0.00000000E+00-1.11869109E+00 2.88482433E-03 2.88482462E-03
18  9-5.76964895E-03 0.00000000E+00 0.00000000E+00 0.00000000E+00-2.90949958E-02
18 10-2.90949961E-02 5.81899919E-02 0.00000000E+00 0.00000000E+00 0.00000000E+00
19  1-0.00000000E+00-0.00000000E+00-0.00000000E+00-0.00000000E+00-0.00000000E+00
19  2-0.00000000E+00-0.00000000E+00-0.00000000E+00-0.00000000E+00-0.00000000E+00
19  3-0.00000000E+00-0.00000000E+00-0.00000000E+00-0.00000000E+00-0.00000000E+00
19  4-0.00000000E+00-3.29110844E-02-0.00000000E+00-0.00000000E+00-0.00000000E+00
19  5-0.00000000E+00-0.00000000E+00 1.01174757E+00-0.00000000E+00-0.00000000E+00
19  6-0.00000000E+00-0.00000000E+00-0.00000000E+00-0.00000000E+00-0.00000000E+00
19  7-0.00000000E+00-0.00000000E+00-0.00000000E+00-0.00000000E+00-0.00000000E+00
19  8-0.00000000E+00-0.00000000E+00-0.00000000E+00-0.00000000E+00-0.00000000E+00
19  9-0.00000000E+00 2.21721646E-02-0.00000000E+00-0.00000000E+00-0.00000000E+00
19 10-0.00000000E+00-0.00000000E+00 3.73493299E-03-0.00000000E+00-0.00000000E+00
20  1-6.44627411E-11 1.28142248E-09 7.84644236E-09 6.48260184E-09 0.00000000E+00
20  2 0.00000000E+00 8.32473557E-10 0.00000000E+00 0.00000000E+00 4.45790959E-09
20  3 0.00000000E+00 0.00000000E+00 3.57505006E-10-2.85018351E-02 2.85018351E-02
20  4-2.85628161E-11 0.00000000E+00 0.00000000E+00 0.00000000E+00 8.76199102E-01
20  5-8.76199101E-01-8.51270235E-10 0.00000000E+00 0.00000000E+00 0.00000000E+00
20  6 0.00000000E+00-4.39892950E-10-1.47485476E-09-1.28721055E-08 0.00000000E+00
20  7 0.00000000E+00 1.41272402E-09 0.00000000E+00 0.00000000E+00 1.78711425E-09
20  8 0.00000000E+00 0.00000000E+00 3.87736571E-09 1.92016578E-02-1.92016578E-02
20  9 2.19131888E-11 0.00000000E+00 0.00000000E+00 0.00000000E+00 3.23454688E-03
20 10-3.23454681E-03-6.71097186E-11 0.00000000E+00 0.00000000E+00 0.00000000E+00
21  1 0.00000000E+00 0.00000000E+00 0.00000000E+00 0.00000000E+00 2.58156377E-01
21  2 0.00000000E+00 0.00000000E+00 8.04142083E-02 0.00000000E+00 0.00000000E+00
21  3 7.97952121E-01 0.00000000E+00 0.00000000E+00 0.00000000E+00 0.00000000E+00
21  4 0.00000000E+00 0.00000000E+00-1.65931301E-02 0.00000000E+00 0.00000000E+00
21  5 0.00000000E+00 0.00000000E+00 0.00000000E+00 1.51236174E+00 0.00000000E+00
21  6 0.00000000E+00 0.00000000E+00 0.00000000E+00 0.00000000E+00-1.31243221E-01
21  7 0.00000000E+00 0.00000000E+00-4.96885709E-01 0.00000000E+00 0.00000000E+00
21  8-1.05478950E+00 0.00000000E+00 0.00000000E+00 0.00000000E+00 0.00000000E+00
21  9 0.00000000E+00 0.00000000E+00-2.46010601E-02 0.00000000E+00 0.00000000E+00
21 10 0.00000000E+00 0.00000000E+00 0.00000000E+00 4.49413475E-02 0.00000000E+00
22  1 0.00000000E+00 0.00000000E+00 0.00000000E+00 0.00000000E+00 0.00000000E+00
22  2 2.58156376E-01 0.00000000E+00 0.00000000E+00 8.04142122E-02 0.00000000E+00
22  3 0.00000000E+00 7.97952122E-01 0.00000000E+00 0.00000000E+00 0.00000000E+00
22  4 0.00000000E+00 0.00000000E+00 0.00000000E+00-1.65931300E-02 0.00000000E+00
22  5 0.00000000E+00 0.00000000E+00 0.00000000E+00 0.00000000E+00 1.51236174E+00
22  6 0.00000000E+00 0.00000000E+00 0.00000000E+00 0.00000000E+00 0.00000000E+00
22  7-1.31243221E-01 0.00000000E+00 0.00000000E+00-4.96885710E-01 0.00000000E+00
22  8 0.00000000E+00-1.05478951E+00 0.00000000E+00 0.00000000E+00 0.00000000E+00
22  9 0.00000000E+00 0.00000000E+00 0.00000000E+00-2.46010601E-02 0.00000000E+00
22 10 0.00000000E+00 0.00000000E+00 0.00000000E+00 0.00000000E+00 4.49413481E-02
23  1-4.04129534E-02-9.85395884E-02-1.48588661E+00-7.03305564E-01 0.00000000E+00
23  2 0.00000000E+00 4.04687709E-01 0.00000000E+00 0.00000000E+00-6.24108874E-01
23  3 0.00000000E+00 0.00000000E+00 5.21632502E-01 5.81579937E-02 5.81579927E-02
23  4-1.16315986E-01 0.00000000E+00 0.00000000E+00 0.00000000E+00-7.21937860E-01
23  5-7.21937863E-01 1.44387572E+00 0.00000000E+00 0.00000000E+00 0.00000000E+00
23  6 3.52575984E-03-8.87009939E-02-7.16918453E-01 2.04054635E+00 0.00000000E+00
23  7 0.00000000E+00 3.54311735E-02 0.00000000E+00 0.00000000E+00-5.50344597E-01
23  8 0.00000000E+00 0.00000000E+00-1.43035967E+00-1.34646428E-02-1.34646440E-02
23  9 2.69292867E-02 0.00000000E+00 0.00000000E+00 0.00000000E+00-1.30359372E-01
23 10-1.30359371E-01 2.60718743E-01 0.00000000E+00 0.00000000E+00 0.00000000E+00
24  1 1.13434445E-02 3.26899982E-01 3.08253307E+00 2.21226731E+00 0.00000000E+00
24  2 0.00000000E+00-5.40106586E-01 0.00000000E+00 0.00000000E+00 4.13971534E+00
24  3 0.00000000E+00 0.00000000E+00 2.82690108E-01-5.94716425E-02-5.94716420E-02
24  4 1.18943285E-01 0.00000000E+00 0.00000000E+00 0.00000000E+00-7.63205043E-01
24  5-7.63205042E-01 1.52641008E+00 0.00000000E+00 0.00000000E+00 0.00000000E+00
24  6 1.28653295E-01 2.16635268E-01-3.50863370E+00-3.66769101E+00 0.00000000E+00
24  7 0.00000000E+00-2.70083145E-02 0.00000000E+00 0.00000000E+00 8.38603402E-01
24  8 0.00000000E+00 0.00000000E+00 2.56632864E-01 2.54087143E-02 2.54087147E-02
24  9-5.08174289E-02 0.00000000E+00 0.00000000E+00 0.00000000E+00 6.25383044E-02
24 10 6.25383039E-02-1.25076608E-01 0.00000000E+00 0.00000000E+00 0.00000000E+00
25  1 0.00000000E+00 0.00000000E+00 0.00000000E+00 0.00000000E+00-1.06150717E+00
25  2 0.00000000E+00 0.00000000E+00 2.71728095E+00 0.00000000E+00 0.00000000E+00
25  3-2.32298288E-02 0.00000000E+00 0.00000000E+00 0.00000000E+00 0.00000000E+00
25  4 0.00000000E+00 0.00000000E+00 9.72935159E-02 0.00000000E+00 0.00000000E+00
25  5 0.00000000E+00 0.00000000E+00 0.00000000E+00 9.29436805E-01 0.00000000E+00
25  6 0.00000000E+00 0.00000000E+00 0.00000000E+00 0.00000000E+00-6.95932029E-02
25  7 0.00000000E+00 0.00000000E+00-8.34700229E-01 0.00000000E+00 0.00000000E+00
25  8-9.33908064E-01 0.00000000E+00 0.00000000E+00 0.00000000E+00 0.00000000E+00
25  9 0.00000000E+00 0.00000000E+00-5.80339932E-03 0.00000000E+00 0.00000000E+00
25 10 0.00000000E+00 0.00000000E+00 0.00000000E+00 5.37095560E-01 0.00000000E+00
26  1 0.00000000E+00 0.00000000E+00 0.00000000E+00 0.00000000E+00 0.00000000E+00
26  2-1.06150717E+00 0.00000000E+00 0.00000000E+00 2.71728095E+00 0.00000000E+00
26  3 0.00000000E+00-2.32298301E-02 0.00000000E+00 0.00000000E+00 0.00000000E+00
26  4 0.00000000E+00 0.00000000E+00 0.00000000E+00 9.72935160E-02 0.00000000E+00
26  5 0.00000000E+00 0.00000000E+00 0.00000000E+00 0.00000000E+00 9.29436802E-01
26  6 0.00000000E+00 0.00000000E+00 0.00000000E+00 0.00000000E+00 0.00000000E+00
26  7-6.95932022E-02 0.00000000E+00 0.00000000E+00-8.34700227E-01 0.00000000E+00
26  8 0.00000000E+00-9.33908063E-01 0.00000000E+00 0.00000000E+00 0.00000000E+00
26  9 0.00000000E+00 0.00000000E+00 0.00000000E+00-5.80339926E-03 0.00000000E+00
26 10 0.00000000E+00 0.00000000E+00 0.00000000E+00 0.00000000E+00 5.37095560E-01
27  1-3.14742642E-01-1.79551879E+00 4.01297513E+00 5.87921678E-01-0.00000000E+00
27  2-0.00000000E+00 4.67367089E-01-0.00000000E+00-0.00000000E+00-9.64478827E-02
27  3-0.00000000E+00-0.00000000E+00 1.29378330E-01 7.10056605E-02 7.10056597E-02
27  4-1.42011320E-01-0.00000000E+00-0.00000000E+00-0.00000000E+00-6.26749743E-02
27  5-6.26749747E-02 1.25349949E-01-0.00000000E+00-0.00000000E+00-0.00000000E+00
27  6-1.35869120E-03-3.06835822E-02-1.95869133E-01-2.19959196E+00-0.00000000E+00
27  7-0.00000000E+00 2.70030760E-01-0.00000000E+00-0.00000000E+00-1.36139063E-01
27  8-0.00000000E+00-0.00000000E+00 1.17502751E+00-1.24682093E-02-1.24682099E-02
27  9 2.49364193E-02-0.00000000E+00-0.00000000E+00-0.00000000E+00 4.19890753E-01
27 10 4.19890754E-01-8.39781506E-01-0.00000000E+00-0.00000000E+00-0.00000000E+00
28  1 0.00000000E+00 0.00000000E+00 0.00000000E+00 0.00000000E+00 0.00000000E+00
28  2 0.00000000E+00 0.00000000E+00 0.00000000E+00 0.00000000E+00 0.00000000E+00
28  3 0.00000000E+00 0.00000000E+00 0.00000000E+00 0.00000000E+00 0.00000000E+00
28  4 0.00000000E+00 7.03588699E-02 0.00000000E+00 0.00000000E+00 0.00000000E+00
28  5 0.00000000E+00 0.00000000E+00-5.87261169E-01 0.00000000E+00 0.00000000E+00
28  6 0.00000000E+00 0.00000000E+00 0.00000000E+00 0.00000000E+00 0.00000000E+00
28  7 0.00000000E+00 0.00000000E+00 0.00000000E+00 0.00000000E+00 0.00000000E+00
28  8 0.00000000E+00 0.00000000E+00 0.00000000E+00 0.00000000E+00 0.00000000E+00
28  9 0.00000000E+00-1.95916343E-02 0.00000000E+00 0.00000000E+00 0.00000000E+00
28 10 0.00000000E+00 0.00000000E+00 1.13860598E+00 0.00000000E+00 0.00000000E+00
29  1-1.56362132E-10-7.42246063E-10 1.07796603E-09 1.30528051E-10-0.00000000E+00
29  2-0.00000000E+00 4.99099822E-10-0.00000000E+00-0.00000000E+00-1.58200211E-10
29  3-0.00000000E+00-0.00000000E+00 9.12042773E-11 6.09325688E-02-6.09325687E-02
29  4-8.65179708E-11-0.00000000E+00-0.00000000E+00-0.00000000E+00-5.08583091E-01
29  5 5.08583091E-01 1.35970828E-10-0.00000000E+00-0.00000000E+00-0.00000000E+00
29  6-0.00000000E+00-1.59167093E-10-1.13085650E-10-5.45959778E-10-0.00000000E+00
29  7-0.00000000E+00 1.77598674E-11-0.00000000E+00-0.00000000E+00-7.38318914E-11
29  8-0.00000000E+00-0.00000000E+00 2.18005109E-10-1.69668530E-02 1.69668530E-02
29  9 1.91300486E-11-0.00000000E+00-0.00000000E+00-0.00000000E+00 9.86061705E-01
29 10-9.86061705E-01-1.41065532E-10-0.00000000E+00-0.00000000E+00-0.00000000E+00
30  1-0.00000000E+00-0.00000000E+00-0.00000000E+00-0.00000000E+00 5.11967496E-01
30  2-0.00000000E+00-0.00000000E+00-2.64732134E-01-0.00000000E+00-0.00000000E+00
30  3 4.29455534E-01-0.00000000E+00-0.00000000E+00-0.00000000E+00-0.00000000E+00
30  4-0.00000000E+00-0.00000000E+00-1.19726457E-01-0.00000000E+00-0.00000000E+00
30  5-0.00000000E+00-0.00000000E+00-0.00000000E+00 6.58631035E-02-0.00000000E+00
30  6-0.00000000E+00-0.00000000E+00-0.00000000E+00-0.00000000E+00-6.36680564E-01
30  7-0.00000000E+00-0.00000000E+00 1.08190798E+00-0.00000000E+00-0.00000000E+00
30  8-8.09149569E-01-0.00000000E+00-0.00000000E+00-0.00000000E+00-0.00000000E+00
30  9-0.00000000E+00-0.00000000E+00-1.23225942E-02-0.00000000E+00-0.00000000E+00
30 10-0.00000000E+00-0.00000000E+00-0.00000000E+00 9.05095871E-01-0.00000000E+00
31  1-0.00000000E+00-0.00000000E+00-0.00000000E+00-0.00000000E+00-0.00000000E+00
31  2 5.11967497E-01-0.00000000E+00-0.00000000E+00-2.64732136E-01-0.00000000E+00
31  3-0.00000000E+00 4.29455535E-01-0.00000000E+00-0.00000000E+00-0.00000000E+00
31  4-0.00000000E+00-0.00000000E+00-0.00000000E+00-1.19726457E-01-0.00000000E+00
31  5-0.00000000E+00-0.00000000E+00-0.00000000E+00-0.00000000E+00 6.58631029E-02
31  6-0.00000000E+00-0.00000000E+00-0.00000000E+00-0.00000000E+00-0.00000000E+00
31  7-6.36680564E-01-0.00000000E+00-0.00000000E+00 1.08190798E+00-0.00000000E+00
31  8-0.00000000E+00-8.09149569E-01-0.00000000E+00-0.00000000E+00-0.00000000E+00
31  9-0.00000000E+00-0.00000000E+00-0.00000000E+00-1.23225943E-02-0.00000000E+00
31 10-0.00000000E+00-0.00000000E+00-0.00000000E+00-0.00000000E+00 9.05095870E-01
32  1-4.40207934E-01-1.89678114E+00 7.80235867E+00 2.64787970E+00 0.00000000E+00
32  2 0.00000000E+00 9.07205224E-01 0.00000000E+00 0.00000000E+00 2.77001461E+00
32  3 0.00000000E+00 0.00000000E+00 8.24700061E-01-1.13137691E-01-1.13137687E-01
32  4 2.26275377E-01 0.00000000E+00 0.00000000E+00 0.00000000E+00-3.68648537E-01
32  5-3.68648538E-01 7.37297075E-01 0.00000000E+00 0.00000000E+00 0.00000000E+00
32  6-6.02672729E-03-4.02605480E-01-2.54188604E+00-6.29456670E+00 0.00000000E+00
32  7 0.00000000E+00-7.63615730E-01 0.00000000E+00 0.00000000E+00 3.01428665E+00
32  8 0.00000000E+00 0.00000000E+00 8.42649919E-01 9.25141189E-03 9.25141348E-03
32  9-1.85028254E-02 0.00000000E+00 0.00000000E+00 0.00000000E+00-5.09478959E-02
32 10-5.09478976E-02 1.01895793E-01 0.00000000E+00 0.00000000E+00 0.00000000E+00
33  1 0.00000000E+00 0.00000000E+00 0.00000000E+00 0.00000000E+00 0.00000000E+00
33  2-9.74084158E-01 0.00000000E+00 0.00000000E+00-7.65343482E-01 0.00000000E+00
33  3 0.00000000E+00-1.30326896E-01 0.00000000E+00 0.00000000E+00 0.00000000E+00
33  4 0.00000000E+00 0.00000000E+00 0.00000000E+00 2.29423331E-01 0.00000000E+00
33  5 0.00000000E+00 0.00000000E+00 0.00000000E+00 0.00000000E+00-1.15014880E+00
33  6 0.00000000E+00 0.00000000E+00 0.00000000E+00 0.00000000E+00 0.00000000E+00
33  7-1.04432709E+00 0.00000000E+00 0.00000000E+00 2.51555598E+00 0.00000000E+00
33  8 0.00000000E+00 3.59920012E-01 0.00000000E+00 0.00000000E+00 0.00000000E+00
33  9 0.00000000E+00 0.00000000E+00 0.00000000E+00-1.17838198E-02 0.00000000E+00
33 10 0.00000000E+00 0.00000000E+00 0.00000000E+00 0.00000000E+00-8.97885191E-01
34  1 0.00000000E+00 0.00000000E+00 0.00000000E+00 0.00000000E+00-9.74084158E-01
34  2 0.00000000E+00 0.00000000E+00-7.65343481E-01 0.00000000E+00 0.00000000E+00
34  3-1.30326897E-01 0.00000000E+00 0.00000000E+00 0.00000000E+00 0.00000000E+00
34  4 0.00000000E+00 0.00000000E+00 2.29423331E-01 0.00000000E+00 0.00000000E+00
34  5 0.00000000E+00 0.00000000E+00 0.00000000E+00-1.15014880E+00 0.00000000E+00
34  6 0.00000000E+00 0.00000000E+00 0.00000000E+00 0.00000000E+00-1.04432709E+00
34  7 0.00000000E+00 0.00000000E+00 2.51555598E+00 0.00000000E+00 0.00000000E+00
34  8 3.59920012E-01 0.00000000E+00 0.00000000E+00 0.00000000E+00 0.00000000E+00
34  9 0.00000000E+00 0.00000000E+00-1.17838198E-02 0.00000000E+00 0.00000000E+00
34 10 0.00000000E+00 0.00000000E+00 0.00000000E+00-8.97885190E-01 0.00000000E+00
35  1-0.00000000E+00-0.00000000E+00-0.00000000E+00-0.00000000E+00-0.00000000E+00
35  2-0.00000000E+00-0.00000000E+00-0.00000000E+00-0.00000000E+00-0.00000000E+00
35  3-0.00000000E+00-0.00000000E+00-0.00000000E+00-0.00000000E+00-0.00000000E+00
35  4-0.00000000E+00 1.16535949E+00-0.00000000E+00-0.00000000E+00-0.00000000E+00
35  5-0.00000000E+00-0.00000000E+00-4.42082828E-01-0.00000000E+00-0.00000000E+00
35  6-0.00000000E+00-0.00000000E+00-0.00000000E+00-0.00000000E+00-0.00000000E+00
35  7-0.00000000E+00-0.00000000E+00-0.00000000E+00-0.00000000E+00-0.00000000E+00
35  8-0.00000000E+00-0.00000000E+00-0.00000000E+00-0.00000000E+00-0.00000000E+00
35  9-0.00000000E+00 4.21269223E-02-0.00000000E+00-0.00000000E+00-0.00000000E+00
35 10-0.00000000E+00-0.00000000E+00-2.55662219E-01-0.00000000E+00-0.00000000E+00
36  1-8.19572522E-10-1.21801072E-09-1.53240747E-08-6.03270251E-09 0.00000000E+00
36  2 0.00000000E+00-5.68206355E-10 0.00000000E+00 0.00000000E+00-6.45756635E-09
36  3 0.00000000E+00 0.00000000E+00-6.41070245E-10-1.00923092E+00 1.00923093E+00
36  4-4.66339884E-09 0.00000000E+00 0.00000000E+00 0.00000000E+00 3.82854959E-01
36  5-3.82854960E-01 1.81190632E-09 0.00000000E+00 0.00000000E+00 0.00000000E+00
36  6 3.15872642E-10 1.25947354E-09 4.96333861E-09 1.54292157E-08 0.00000000E+00
36  7 0.00000000E+00 4.28402270E-09 0.00000000E+00 0.00000000E+00-1.18265010E-08