 $CONTRL SCFTYP=NONE  MPLEVL=0  CITYP=ORMAS RUNTYP=ENERGY MULT=2 ICHARG=+1
         ISPHER=+1 NOSYM=0 ITOL=40 ICUT=20
   $END
 $SYSTEM TIMLIM=200000 MWORDS=250                                         $END
 $BASIS  GBASIS=APVDZ EXTFIL=.TRUE.                                       $END
 $GUESS  GUESS=MOREAD NORB=46 PURIFY=.FALSE. TOLE=0.0 TOLZ=0.0            $END
 $TRANS  IPURFY=0 DIRTRF=.TRUE. CUTTRF=1E-12                              $END
 $CIDET  NCORE=2 NACT=8  NELS=9 SZ=0.5 GROUP=C2v STSYM=A1
         NSTATE=2 PRTTOL=-1 ITERMX=400 MXXPAN=50 CLOBBR=.TRUE. CVGTOL=1E-9
   $END
 $ORMAS  NSPACE=1 MSTART(1)=3,11 MINE(1)=8,0 MAXE(1)=9,1                  $END
 $DATA
CO, X Re (1.128323), aug-cc-pVDZ, COM geometry
Cnv 2

 C    6.0   0.0  0.0  -0.64466815843494108201
 O    8.0   0.0  0.0   0.48365484156505891799
 $END
--- OPTIMIZED MCSCF MO-S --- GENERATED AT Thu Sep 15 19:03:26 2016
CO, X Re (1.128323), aug-cc-pVDZ, COM geometry                                  
E(MCSCF)=     -112.1844255913, E(NUC)=       22.5117346394
 $VEC   
 1  1 3.36005067E-04-4.58810187E-04 5.79854026E-03 1.17507289E-03-0.00000000E+00
 1  2-0.00000000E+00-7.05267784E-04-0.00000000E+00-0.00000000E+00 4.32699691E-03
 1  3-0.00000000E+00-0.00000000E+00 1.74760266E-04 3.74250226E-04 3.74250232E-04
 1  4-7.48500457E-04-0.00000000E+00-0.00000000E+00-0.00000000E+00-7.74306116E-04
 1  5-7.74306105E-04 1.54861222E-03-0.00000000E+00-0.00000000E+00-0.00000000E+00
 1  6 1.00124975E+00 2.42485237E-03-9.68692789E-03-2.33367877E-03-0.00000000E+00
 1  7-0.00000000E+00-1.97627054E-03-0.00000000E+00-0.00000000E+00 3.67092291E-03
 1  8-0.00000000E+00-0.00000000E+00 1.69285385E-04-1.38909496E-04-1.38909493E-04
 1  9 2.77818989E-04-0.00000000E+00-0.00000000E+00-0.00000000E+00 2.67824694E-04
 1 10 2.67824697E-04-5.35649390E-04-0.00000000E+00-0.00000000E+00-0.00000000E+00
 2  1 1.00256299E+00 9.07434628E-03-7.87467288E-03-3.45409600E-04 0.00000000E+00
 2  2 0.00000000E+00 5.14391489E-03 0.00000000E+00 0.00000000E+00-3.67516538E-03
 2  3 0.00000000E+00 0.00000000E+00-3.45406298E-04-4.90347067E-04-4.90347062E-04
 2  4 9.80694129E-04 0.00000000E+00 0.00000000E+00 0.00000000E+00 5.48058401E-04
 2  5 5.48058409E-04-1.09611681E-03 0.00000000E+00 0.00000000E+00 0.00000000E+00
 2  6-1.96445855E-04 2.33556507E-03-2.42342461E-03 1.80363577E-03 0.00000000E+00
 2  7 0.00000000E+00 9.78093311E-04 0.00000000E+00 0.00000000E+00 3.61893102E-03
 2  8 0.00000000E+00 0.00000000E+00-6.92677326E-04-2.51672537E-04-2.51672550E-04
 2  9 5.03345087E-04 0.00000000E+00 0.00000000E+00 0.00000000E+00 1.11905514E-03
 2 10 1.11905515E-03-2.23811029E-03 0.00000000E+00 0.00000000E+00 0.00000000E+00
 3  1 1.77678964E-03 5.00702044E-01-2.04326813E-01 1.44454805E-02 0.00000000E+00
 3  2 0.00000000E+00 3.37678610E-01 0.00000000E+00 0.00000000E+00-1.68377423E-01
 3  3 0.00000000E+00 0.00000000E+00 3.02821857E-03-2.20049476E-02-2.20049482E-02
 3  4 4.40098959E-02 0.00000000E+00 0.00000000E+00 0.00000000E+00 1.01983737E-02
 3  5 1.01983716E-02-2.03967453E-02 0.00000000E+00 0.00000000E+00 0.00000000E+00
 3  6 2.43122762E-06 8.57234414E-01-1.34806856E-01-5.15245042E-02 0.00000000E+00
 3  7 0.00000000E+00-2.25741441E-01 0.00000000E+00 0.00000000E+00 9.79551574E-02
 3  8 0.00000000E+00 0.00000000E+00 2.32966994E-02-1.14274142E-02-1.14274146E-02
 3  9 2.28548288E-02 0.00000000E+00 0.00000000E+00 0.00000000E+00 8.21865964E-03
 3 10 8.21865906E-03-1.64373187E-02 0.00000000E+00 0.00000000E+00 0.00000000E+00
 4  1-1.94441168E-02-6.36840644E-01 1.20817844E-01-1.89988751E-02 0.00000000E+00
 4  2 0.00000000E+00-1.94932766E-01 0.00000000E+00 0.00000000E+00 5.83567110E-02
 4  3 0.00000000E+00 0.00000000E+00-1.36023150E-03 1.09342351E-02 1.09342348E-02
 4  4-2.18684699E-02 0.00000000E+00 0.00000000E+00 0.00000000E+00 4.44108241E-03
 4  5 4.44108244E-03-8.88216485E-03 0.00000000E+00 0.00000000E+00 0.00000000E+00
 4  6 6.61869730E-03 4.99511715E-01 1.58808947E-01 7.79882810E-02 0.00000000E+00
 4  7 0.00000000E+00 7.65438581E-01 0.00000000E+00 0.00000000E+00-1.70894795E-01
 4  8 0.00000000E+00 0.00000000E+00-2.08912349E-02 1.08712791E-02 1.08712789E-02
 4  9-2.17425580E-02 0.00000000E+00 0.00000000E+00 0.00000000E+00-6.34975811E-04
 4 10-6.34975237E-04 1.26995105E-03 0.00000000E+00 0.00000000E+00 0.00000000E+00
 5  1 0.00000000E+00 0.00000000E+00 0.00000000E+00 0.00000000E+00 0.00000000E+00
 5  2 4.90089166E-01 0.00000000E+00 0.00000000E+00-1.62884633E-01 0.00000000E+00
 5  3 0.00000000E+00-2.53540214E-03 0.00000000E+00 0.00000000E+00 0.00000000E+00
 5  4 0.00000000E+00 0.00000000E+00 0.00000000E+00 5.06102683E-02 0.00000000E+00
 5  5 0.00000000E+00 0.00000000E+00 0.00000000E+00 0.00000000E+00-2.46160507E-02
 5  6 0.00000000E+00 0.00000000E+00 0.00000000E+00 0.00000000E+00 0.00000000E+00
 5  7 8.62536749E-01 0.00000000E+00 0.00000000E+00-5.48465918E-02 0.00000000E+00
 5  8 0.00000000E+00 6.08481231E-03 0.00000000E+00 0.00000000E+00 0.00000000E+00
 5  9 0.00000000E+00 0.00000000E+00 0.00000000E+00-2.79827897E-02 0.00000000E+00
 5 10 0.00000000E+00 0.00000000E+00 0.00000000E+00 0.00000000E+00-2.43439796E-02
 6  1 0.00000000E+00 0.00000000E+00 0.00000000E+00 0.00000000E+00 4.88906347E-01
 6  2 0.00000000E+00 0.00000000E+00-1.62705790E-01 0.00000000E+00 0.00000000E+00
 6  3-2.52636407E-03 0.00000000E+00 0.00000000E+00 0.00000000E+00 0.00000000E+00
 6  4 0.00000000E+00 0.00000000E+00 5.06581984E-02 0.00000000E+00 0.00000000E+00
 6  5 0.00000000E+00 0.00000000E+00 0.00000000E+00-2.46197626E-02 0.00000000E+00
 6  6 0.00000000E+00 0.00000000E+00 0.00000000E+00 0.00000000E+00 8.63263185E-01
 6  7 0.00000000E+00 0.00000000E+00-5.49053629E-02 0.00000000E+00 0.00000000E+00
 6  8 6.11216533E-03 0.00000000E+00 0.00000000E+00 0.00000000E+00 0.00000000E+00
 6  9 0.00000000E+00 0.00000000E+00-2.79674604E-02 0.00000000E+00 0.00000000E+00
 6 10 0.00000000E+00 0.00000000E+00 0.00000000E+00-2.43212247E-02 0.00000000E+00
 7  1-7.89257462E-03-6.94534977E-01-6.46029805E-02 4.84648464E-04 0.00000000E+00
 7  2 0.00000000E+00 7.72626137E-01 0.00000000E+00 0.00000000E+00-2.47719362E-01
 7  3 0.00000000E+00 0.00000000E+00-7.53580206E-03-2.43586641E-02-2.43586646E-02
 7  4 4.87173287E-02 0.00000000E+00 0.00000000E+00 0.00000000E+00 3.80923756E-03
 7  5 3.80923725E-03-7.61847481E-03 0.00000000E+00 0.00000000E+00 0.00000000E+00
 7  6-3.39703922E-03 4.19978096E-02-3.57019037E-02-4.90838508E-03 0.00000000E+00
 7  7 0.00000000E+00-3.85630720E-01 0.00000000E+00 0.00000000E+00 9.23582721E-02
 7  8 0.00000000E+00 0.00000000E+00-2.07012169E-03-9.12362742E-03-9.12362806E-03
 7  9 1.82472555E-02 0.00000000E+00 0.00000000E+00 0.00000000E+00 1.25839283E-02
 7 10 1.25839296E-02-2.51678579E-02 0.00000000E+00 0.00000000E+00 0.00000000E+00
 8  1 0.00000000E+00 0.00000000E+00 0.00000000E+00 0.00000000E+00 0.00000000E+00
 8  2 1.09132249E+00 0.00000000E+00 0.00000000E+00-1.64960990E-01 0.00000000E+00
 8  3 0.00000000E+00-8.33951033E-03 0.00000000E+00 0.00000000E+00 0.00000000E+00
 8  4 0.00000000E+00 0.00000000E+00 0.00000000E+00-4.42607059E-02 0.00000000E+00
 8  5 0.00000000E+00 0.00000000E+00 0.00000000E+00 0.00000000E+00 3.43897612E-03
 8  6 0.00000000E+00 0.00000000E+00 0.00000000E+00 0.00000000E+00 0.00000000E+00
 8  7-6.70872654E-01 0.00000000E+00 0.00000000E+00 5.42679117E-02 0.00000000E+00
 8  8 0.00000000E+00-2.52466006E-02 0.00000000E+00 0.00000000E+00 0.00000000E+00
 8  9 0.00000000E+00 0.00000000E+00 0.00000000E+00-1.41317245E-02 0.00000000E+00
 8 10 0.00000000E+00 0.00000000E+00 0.00000000E+00 0.00000000E+00-2.09865794E-02
 9  1 0.00000000E+00 0.00000000E+00 0.00000000E+00 0.00000000E+00 1.09185290E+00
 9  2 0.00000000E+00 0.00000000E+00-1.65137398E-01 0.00000000E+00 0.00000000E+00
 9  3-8.34224863E-03 0.00000000E+00 0.00000000E+00 0.00000000E+00 0.00000000E+00
 9  4 0.00000000E+00 0.00000000E+00-4.42058398E-02 0.00000000E+00 0.00000000E+00
 9  5 0.00000000E+00 0.00000000E+00 0.00000000E+00 3.41230023E-03 0.00000000E+00
 9  6 0.00000000E+00 0.00000000E+00 0.00000000E+00 0.00000000E+00-6.69937635E-01
 9  7 0.00000000E+00 0.00000000E+00 5.42084493E-02 0.00000000E+00 0.00000000E+00
 9  8-2.52399934E-02 0.00000000E+00 0.00000000E+00 0.00000000E+00 0.00000000E+00
 9  9 0.00000000E+00 0.00000000E+00-1.41620377E-02 0.00000000E+00 0.00000000E+00
 9 10 0.00000000E+00 0.00000000E+00 0.00000000E+00-2.10129459E-02 0.00000000E+00
10  1 1.63230658E-01 1.17205851E+00-3.54612285E-01 8.10097780E-02 0.00000000E+00
10  2 0.00000000E+00 1.37674133E+00 0.00000000E+00 0.00000000E+00-3.98679984E-01
10  3 0.00000000E+00 0.00000000E+00 1.41987170E-02-2.59112336E-02-2.59112375E-02
10  4 5.18224711E-02 0.00000000E+00 0.00000000E+00 0.00000000E+00-1.30714767E-02
10  5-1.30715023E-02 2.61429790E-02 0.00000000E+00 0.00000000E+00 0.00000000E+00
10  6-1.41804223E-01-9.64255201E-01 1.17965585E-01-2.18491397E-01 0.00000000E+00
10  7 0.00000000E+00 1.19755150E+00 0.00000000E+00 0.00000000E+00-4.23301365E-01
10  8 0.00000000E+00 0.00000000E+00 3.21797440E-02-2.81509930E-02-2.81510140E-02
10  9 5.63020070E-02 0.00000000E+00 0.00000000E+00 0.00000000E+00-1.28739617E-02
10 10-1.28739211E-02 2.57478829E-02 0.00000000E+00 0.00000000E+00 0.00000000E+00
11  1-1.70149595E-02-2.26257457E-01 3.44297143E-01 2.52753308E+00-0.00000000E+00
11  2-0.00000000E+00 1.12295544E-01-0.00000000E+00-0.00000000E+00 4.53230730E-01
11  3-0.00000000E+00-0.00000000E+00 6.73989647E-01-5.63743984E-03-5.63743979E-03
11  4 1.12748796E-02-0.00000000E+00-0.00000000E+00-0.00000000E+00-3.37328582E-02
11  5-3.37328567E-02 6.74657149E-02-0.00000000E+00-0.00000000E+00-0.00000000E+00
11  6 4.95576048E-03-1.07986693E-01-3.20381286E-01-1.88561373E+00-0.00000000E+00
11  7-0.00000000E+00-9.63257659E-02-0.00000000E+00-0.00000000E+00 1.35228460E-01
11  8-0.00000000E+00-0.00000000E+00 4.81477491E-01 3.02499229E-03 3.02499248E-03
11  9-6.04998477E-03-0.00000000E+00-0.00000000E+00-0.00000000E+00 1.80732160E-02
11 10 1.80732151E-02-3.61464311E-02-0.00000000E+00-0.00000000E+00-0.00000000E+00
12  1-0.00000000E+00-0.00000000E+00-0.00000000E+00-0.00000000E+00-0.00000000E+00
12  2-2.20356740E-01-0.00000000E+00-0.00000000E+00-1.04463533E-01-0.00000000E+00
12  3-0.00000000E+00 1.16151280E+00-0.00000000E+00-0.00000000E+00-0.00000000E+00
12  4-0.00000000E+00-0.00000000E+00-0.00000000E+00-2.02473984E-02-0.00000000E+00
12  5-0.00000000E+00-0.00000000E+00-0.00000000E+00-0.00000000E+00 2.75089541E-02
12  6-0.00000000E+00-0.00000000E+00-0.00000000E+00-0.00000000E+00-0.00000000E+00
12  7-6.67847640E-02-0.00000000E+00-0.00000000E+00 1.45075555E-02-0.00000000E+00
12  8-0.00000000E+00-6.93021987E-02-0.00000000E+00-0.00000000E+00-0.00000000E+00
12  9-0.00000000E+00-0.00000000E+00-0.00000000E+00 9.14223253E-03-0.00000000E+00
12 10-0.00000000E+00-0.00000000E+00-0.00000000E+00-0.00000000E+00 7.42838369E-03
13  1-0.00000000E+00-0.00000000E+00-0.00000000E+00-0.00000000E+00-2.20356741E-01
13  2-0.00000000E+00-0.00000000E+00-1.04463533E-01-0.00000000E+00-0.00000000E+00
13  3 1.16151280E+00-0.00000000E+00-0.00000000E+00-0.00000000E+00-0.00000000E+00
13  4-0.00000000E+00-0.00000000E+00-2.02473984E-02-0.00000000E+00-0.00000000E+00
13  5-0.00000000E+00-0.00000000E+00-0.00000000E+00 2.75089541E-02-0.00000000E+00
13  6-0.00000000E+00-0.00000000E+00-0.00000000E+00-0.00000000E+00-6.67847634E-02
13  7-0.00000000E+00-0.00000000E+00 1.45075556E-02-0.00000000E+00-0.00000000E+00
13  8-6.93021976E-02-0.00000000E+00-0.00000000E+00-0.00000000E+00-0.00000000E+00
13  9-0.00000000E+00-0.00000000E+00 9.14223256E-03-0.00000000E+00-0.00000000E+00
13 10-0.00000000E+00-0.00000000E+00-0.00000000E+00 7.42838372E-03-0.00000000E+00
14  1-4.06474541E-03 1.15896112E-01 2.06669413E-01-3.08384655E-01-0.00000000E+00
14  2-0.00000000E+00-1.65768297E-01-0.00000000E+00-0.00000000E+00-8.75554857E-02
14  3-0.00000000E+00-0.00000000E+00 1.22377216E+00 4.65534162E-03 4.65534177E-03
14  4-9.31068339E-03-0.00000000E+00-0.00000000E+00-0.00000000E+00-1.27348918E-02
14  5-1.27348888E-02 2.54697806E-02-0.00000000E+00-0.00000000E+00-0.00000000E+00
14  6-3.34510844E-03-7.05618930E-02 6.70321025E-03-2.81563461E-01-0.00000000E+00
14  7-0.00000000E+00-6.16844848E-02-0.00000000E+00-0.00000000E+00-4.98874853E-03
14  8-0.00000000E+00-0.00000000E+00-1.21011475E-01 1.46146786E-03 1.46146825E-03
14  9-2.92293611E-03-0.00000000E+00-0.00000000E+00-0.00000000E+00 3.72823616E-03
14 10 3.72823422E-03-7.45647038E-03-0.00000000E+00-0.00000000E+00-0.00000000E+00
15  1-6.48875631E-03 1.51195914E-01 1.13411723E+00 2.92397710E-01 0.00000000E+00
15  2 0.00000000E+00 9.36954235E-02 0.00000000E+00 0.00000000E+00-1.33775132E-01
15  3 0.00000000E+00 0.00000000E+00-8.73127527E-01-1.00738011E-02-1.00738012E-02
15  4 2.01476023E-02 0.00000000E+00 0.00000000E+00 0.00000000E+00 4.02755160E-02
15  5 4.02755133E-02-8.05510293E-02 0.00000000E+00 0.00000000E+00 0.00000000E+00
15  6-4.49530787E-03-5.57715403E-02 1.27874308E-02-6.65528082E-01 0.00000000E+00
15  7 0.00000000E+00-7.57661186E-02 0.00000000E+00 0.00000000E+00 3.02753472E-02
15  8 0.00000000E+00 0.00000000E+00 2.04009943E+00-1.31724106E-02-1.31724108E-02
15  9 2.63448214E-02 0.00000000E+00 0.00000000E+00 0.00000000E+00 1.83722343E-02
15 10 1.83722355E-02-3.67444698E-02 0.00000000E+00 0.00000000E+00 0.00000000E+00
16  1 0.00000000E+00 0.00000000E+00 0.00000000E+00 0.00000000E+00 0.00000000E+00
16  2-1.65133382E-02 0.00000000E+00 0.00000000E+00-3.58217941E-01 0.00000000E+00
16  3 0.00000000E+00-1.45071115E+00 0.00000000E+00 0.00000000E+00 0.00000000E+00
16  4 0.00000000E+00 0.00000000E+00 0.00000000E+00-1.68427133E-02 0.00000000E+00
16  5 0.00000000E+00 0.00000000E+00 0.00000000E+00 0.00000000E+00-1.78058879E-01
16  6 0.00000000E+00 0.00000000E+00 0.00000000E+00 0.00000000E+00 0.00000000E+00
16  7-2.10039383E-01 0.00000000E+00 0.00000000E+00-2.68896723E-02 0.00000000E+00
16  8 0.00000000E+00 2.14470948E+00 0.00000000E+00 0.00000000E+00 0.00000000E+00
16  9 0.00000000E+00 0.00000000E+00 0.00000000E+00 2.11475429E-02 0.00000000E+00
16 10 0.00000000E+00 0.00000000E+00 0.00000000E+00 0.00000000E+00-7.28760206E-02
17  1 0.00000000E+00 0.00000000E+00 0.00000000E+00 0.00000000E+00-1.65133368E-02
17  2 0.00000000E+00 0.00000000E+00-3.58217941E-01 0.00000000E+00 0.00000000E+00
17  3-1.45071115E+00 0.00000000E+00 0.00000000E+00 0.00000000E+00 0.00000000E+00
17  4 0.00000000E+00 0.00000000E+00-1.68427133E-02 0.00000000E+00 0.00000000E+00
17  5 0.00000000E+00 0.00000000E+00 0.00000000E+00-1.78058879E-01 0.00000000E+00
17  6 0.00000000E+00 0.00000000E+00 0.00000000E+00 0.00000000E+00-2.10039384E-01
17  7 0.00000000E+00 0.00000000E+00-2.68896725E-02 0.00000000E+00 0.00000000E+00
17  8 2.14470948E+00 0.00000000E+00 0.00000000E+00 0.00000000E+00 0.00000000E+00
17  9 0.00000000E+00 0.00000000E+00 2.11475429E-02 0.00000000E+00 0.00000000E+00
17 10 0.00000000E+00 0.00000000E+00 0.00000000E+00-7.28760207E-02 0.00000000E+00
18  1 1.14765762E-02-1.16661086E-01-2.44646907E+00-4.33117917E+00 0.00000000E+00
18  2 0.00000000E+00-1.10606519E-01 0.00000000E+00 0.00000000E+00-1.24910771E+00
18  3 0.00000000E+00 0.00000000E+00-1.69225223E+00 2.73235590E-02 2.73235593E-02
18  4-5.46471182E-02 0.00000000E+00 0.00000000E+00 0.00000000E+00 2.47682726E-01
18  5 2.47682745E-01-4.95365471E-01 0.00000000E+00 0.00000000E+00 0.00000000E+00
18  6-3.12564301E-02-3.30281558E-01 3.78722898E-01 7.15388919E+00 0.00000000E+00
18  7 0.00000000E+00-1.32698346E-01 0.00000000E+00 0.00000000E+00-6.19296990E-01
18  8 0.00000000E+00 0.00000000E+00-8.87003178E-01 4.51922555E-03 4.51922643E-03
18  9-9.03845197E-03 0.00000000E+00 0.00000000E+00 0.00000000E+00-7.47793814E-03
18 10-7.47794096E-03 1.49558791E-02 0.00000000E+00 0.00000000E+00 0.00000000E+00
19  1-0.00000000E+00-0.00000000E+00-0.00000000E+00-0.00000000E+00-0.00000000E+00
19  2-0.00000000E+00-0.00000000E+00-0.00000000E+00-0.00000000E+00-0.00000000E+00
19  3-0.00000000E+00-0.00000000E+00-0.00000000E+00-0.00000000E+00-0.00000000E+00
19  4-0.00000000E+00 5.55279668E-03-0.00000000E+00-0.00000000E+00-0.00000000E+00
19  5-0.00000000E+00-0.00000000E+00 9.75531686E-01-0.00000000E+00-0.00000000E+00
19  6-0.00000000E+00-0.00000000E+00-0.00000000E+00-0.00000000E+00-0.00000000E+00
19  7-0.00000000E+00-0.00000000E+00-0.00000000E+00-0.00000000E+00-0.00000000E+00
19  8-0.00000000E+00-0.00000000E+00-0.00000000E+00-0.00000000E+00-0.00000000E+00
19  9-0.00000000E+00 2.29463333E-02-0.00000000E+00-0.00000000E+00-0.00000000E+00
19 10-0.00000000E+00-0.00000000E+00 3.74067230E-02-0.00000000E+00-0.00000000E+00
20  1-8.57365298E-11-6.23957888E-09-3.98680145E-08-5.17489095E-08 0.00000000E+00
20  2 0.00000000E+00-5.84794639E-09 0.00000000E+00 0.00000000E+00-2.15832681E-08
20  3 0.00000000E+00 0.00000000E+00-1.13916476E-08 4.80886295E-03-4.80886302E-03
20  4 6.62791170E-11 0.00000000E+00 0.00000000E+00 0.00000000E+00 8.44835222E-01
20  5-8.44835222E-01-2.47059646E-10 0.00000000E+00 0.00000000E+00 0.00000000E+00
20  6-1.20956521E-10-1.81100413E-09 6.52143670E-09 9.11064558E-08 0.00000000E+00
20  7 0.00000000E+00-5.53099687E-09 0.00000000E+00 0.00000000E+00-9.73057831E-09
20  8 0.00000000E+00 0.00000000E+00-2.00147426E-08 1.98721077E-02-1.98721074E-02
20  9-2.93957181E-10 0.00000000E+00 0.00000000E+00 0.00000000E+00 3.23951725E-02
20 10-3.23951723E-02-2.27072592E-10 0.00000000E+00 0.00000000E+00 0.00000000E+00
21  1-0.00000000E+00-0.00000000E+00-0.00000000E+00-0.00000000E+00 4.12709996E-01
21  2-0.00000000E+00-0.00000000E+00-1.97511778E-02-0.00000000E+00-0.00000000E+00
21  3 8.28193338E-01-0.00000000E+00-0.00000000E+00-0.00000000E+00-0.00000000E+00
21  4-0.00000000E+00-0.00000000E+00 7.32191508E-03-0.00000000E+00-0.00000000E+00
21  5-0.00000000E+00-0.00000000E+00-0.00000000E+00 1.48638890E+00-0.00000000E+00
21  6-0.00000000E+00-0.00000000E+00-0.00000000E+00-0.00000000E+00-1.70611763E-01
21  7-0.00000000E+00-0.00000000E+00-5.59978991E-01-0.00000000E+00-0.00000000E+00
21  8-9.90305211E-01-0.00000000E+00-0.00000000E+00-0.00000000E+00-0.00000000E+00
21  9-0.00000000E+00-0.00000000E+00-2.46720970E-02-0.00000000E+00-0.00000000E+00
21 10-0.00000000E+00-0.00000000E+00-0.00000000E+00-1.02397577E-02-0.00000000E+00
22  1-0.00000000E+00-0.00000000E+00-0.00000000E+00-0.00000000E+00-0.00000000E+00
22  2 4.12709995E-01-0.00000000E+00-0.00000000E+00-1.97511722E-02-0.00000000E+00
22  3-0.00000000E+00 8.28193338E-01-0.00000000E+00-0.00000000E+00-0.00000000E+00
22  4-0.00000000E+00-0.00000000E+00-0.00000000E+00 7.32191527E-03-0.00000000E+00
22  5-0.00000000E+00-0.00000000E+00-0.00000000E+00-0.00000000E+00 1.48638890E+00
22  6-0.00000000E+00-0.00000000E+00-0.00000000E+00-0.00000000E+00-0.00000000E+00
22  7-1.70611764E-01-0.00000000E+00-0.00000000E+00-5.59978993E-01-0.00000000E+00
22  8-0.00000000E+00-9.90305214E-01-0.00000000E+00-0.00000000E+00-0.00000000E+00
22  9-0.00000000E+00-0.00000000E+00-0.00000000E+00-2.46720970E-02-0.00000000E+00
22 10-0.00000000E+00-0.00000000E+00-0.00000000E+00-0.00000000E+00-1.02397570E-02
23  1-3.79462914E-02-1.60183395E-01-1.88905409E+00-1.23114097E+00 0.00000000E+00
23  2 0.00000000E+00 4.73278587E-01 0.00000000E+00 0.00000000E+00-1.31058628E+00
23  3 0.00000000E+00 0.00000000E+00 5.72752831E-01 4.80127628E-02 4.80127624E-02
23  4-9.60255252E-02 0.00000000E+00 0.00000000E+00 0.00000000E+00-5.70746155E-01
23  5-5.70746152E-01 1.14149231E+00 0.00000000E+00 0.00000000E+00 0.00000000E+00
23  6-1.67325086E-02-1.21328300E-01-1.82935463E-01 2.73258660E+00 0.00000000E+00
23  7 0.00000000E+00 1.55460000E-02 0.00000000E+00 0.00000000E+00-5.63075171E-01
23  8 0.00000000E+00 0.00000000E+00-1.63192582E+00-1.69810801E-02-1.69810812E-02
23  9 3.39621613E-02 0.00000000E+00 0.00000000E+00 0.00000000E+00-1.22089381E-01
23 10-1.22089368E-01 2.44178749E-01 0.00000000E+00 0.00000000E+00 0.00000000E+00
24  1 2.86053462E-02 4.06237129E-01 2.42603102E+00 2.24985731E+00 0.00000000E+00
24  2 0.00000000E+00-4.45602826E-01 0.00000000E+00 0.00000000E+00 3.88391331E+00
24  3 0.00000000E+00 0.00000000E+00 3.98307281E-01-4.39128624E-02-4.39128624E-02
24  4 8.78257248E-02 0.00000000E+00 0.00000000E+00 0.00000000E+00-8.73324093E-01
24  5-8.73324093E-01 1.74664819E+00 0.00000000E+00 0.00000000E+00 0.00000000E+00
24  6 1.03856611E-01 1.33622186E-01-3.31981292E+00-3.39957521E+00 0.00000000E+00
24  7 0.00000000E+00 2.69857541E-02 0.00000000E+00 0.00000000E+00 6.26014287E-01
24  8 0.00000000E+00 0.00000000E+00-1.82940836E-02 2.25475148E-02 2.25475148E-02
24  9-4.50950296E-02 0.00000000E+00 0.00000000E+00 0.00000000E+00 2.80630762E-02
24 10 2.80630757E-02-5.61261519E-02 0.00000000E+00 0.00000000E+00 0.00000000E+00
25  1 0.00000000E+00 0.00000000E+00 0.00000000E+00 0.00000000E+00-1.01914203E+00
25  2 0.00000000E+00 0.00000000E+00 2.69842804E+00 0.00000000E+00 0.00000000E+00
25  3-1.46851581E-02 0.00000000E+00 0.00000000E+00 0.00000000E+00 0.00000000E+00
25  4 0.00000000E+00 0.00000000E+00 9.69630831E-02 0.00000000E+00 0.00000000E+00
25  5 0.00000000E+00 0.00000000E+00 0.00000000E+00 9.40889454E-01 0.00000000E+00
25  6 0.00000000E+00 0.00000000E+00 0.00000000E+00 0.00000000E+00-1.15307891E-01
25  7 0.00000000E+00 0.00000000E+00-7.33917097E-01 0.00000000E+00 0.00000000E+00
25  8-1.05579495E+00 0.00000000E+00 0.00000000E+00 0.00000000E+00 0.00000000E+00
25  9 0.00000000E+00 0.00000000E+00-4.44622997E-03 0.00000000E+00 0.00000000E+00
25 10 0.00000000E+00 0.00000000E+00 0.00000000E+00 4.47112723E-01 0.00000000E+00
26  1 0.00000000E+00 0.00000000E+00 0.00000000E+00 0.00000000E+00 0.00000000E+00
26  2-1.01914204E+00 0.00000000E+00 0.00000000E+00 2.69842804E+00 0.00000000E+00
26  3 0.00000000E+00-1.46851595E-02 0.00000000E+00 0.00000000E+00 0.00000000E+00
26  4 0.00000000E+00 0.00000000E+00 0.00000000E+00 9.69630831E-02 0.00000000E+00
26  5 0.00000000E+00 0.00000000E+00 0.00000000E+00 0.00000000E+00 9.40889451E-01
26  6 0.00000000E+00 0.00000000E+00 0.00000000E+00 0.00000000E+00 0.00000000E+00
26  7-1.15307889E-01 0.00000000E+00 0.00000000E+00-7.33917095E-01 0.00000000E+00
26  8 0.00000000E+00-1.05579495E+00 0.00000000E+00 0.00000000E+00 0.00000000E+00
26  9 0.00000000E+00 0.00000000E+00 0.00000000E+00-4.44622986E-03 0.00000000E+00
26 10 0.00000000E+00 0.00000000E+00 0.00000000E+00 0.00000000E+00 4.47112724E-01
27  1-3.52651425E-01-1.85938072E+00 4.58341729E+00 8.93281531E-01 0.00000000E+00
27  2 0.00000000E+00 5.01532314E-01 0.00000000E+00 0.00000000E+00 1.72282903E-01
27  3 0.00000000E+00 0.00000000E+00 2.14120355E-01 7.69489610E-02 7.69489647E-02
27  4-1.53897926E-01 0.00000000E+00 0.00000000E+00 0.00000000E+00-1.14044510E-01
27  5-1.14044547E-01 2.28089057E-01 0.00000000E+00 0.00000000E+00 0.00000000E+00
27  6 5.63757369E-04-5.50093641E-02-3.93365266E-01-2.84220697E+00 0.00000000E+00
27  7 0.00000000E+00 2.84026185E-01 0.00000000E+00 0.00000000E+00-3.60036730E-02
27  8 0.00000000E+00 0.00000000E+00 1.33315510E+00-7.15150390E-03-7.15150479E-03
27  9 1.43030087E-02 0.00000000E+00 0.00000000E+00 0.00000000E+00 4.00000576E-01
27 10 4.00000648E-01-8.00001224E-01 0.00000000E+00 0.00000000E+00 0.00000000E+00
28  1 0.00000000E+00 0.00000000E+00 0.00000000E+00 0.00000000E+00 0.00000000E+00
28  2 0.00000000E+00 0.00000000E+00 0.00000000E+00 0.00000000E+00 0.00000000E+00
28  3 0.00000000E+00 0.00000000E+00 0.00000000E+00 0.00000000E+00 0.00000000E+00
28  4 0.00000000E+00 7.18928956E-02 0.00000000E+00 0.00000000E+00 0.00000000E+00
28  5 0.00000000E+00 0.00000000E+00-6.21593850E-01 0.00000000E+00 0.00000000E+00
28  6 0.00000000E+00 0.00000000E+00 0.00000000E+00 0.00000000E+00 0.00000000E+00
28  7 0.00000000E+00 0.00000000E+00 0.00000000E+00 0.00000000E+00 0.00000000E+00
28  8 0.00000000E+00 0.00000000E+00 0.00000000E+00 0.00000000E+00 0.00000000E+00
28  9 0.00000000E+00-4.57350231E-03 0.00000000E+00 0.00000000E+00 0.00000000E+00
28 10 0.00000000E+00 0.00000000E+00 1.12827863E+00 0.00000000E+00 0.00000000E+00
29  1-1.69922512E-08-7.77617971E-08 2.13953686E-07 5.23061920E-08 0.00000000E+00
29  2 0.00000000E+00 4.13973838E-08 0.00000000E+00 0.00000000E+00 1.86854523E-08
29  3 0.00000000E+00 0.00000000E+00 2.01527438E-08 6.22610794E-02-6.22610685E-02
29  4-1.09654861E-08 0.00000000E+00 0.00000000E+00 0.00000000E+00-5.38316078E-01
29  5 5.38316051E-01 2.62991509E-08 0.00000000E+00 0.00000000E+00 0.00000000E+00
29  6-3.25221479E-10-1.11895010E-08-3.68131001E-08-1.44441304E-07 0.00000000E+00
29  7 0.00000000E+00 1.80145235E-08 0.00000000E+00 0.00000000E+00 9.26930945E-09
29  8 0.00000000E+00 0.00000000E+00 4.41904733E-08-3.96076990E-03 3.96076847E-03
29  9 1.43044433E-09 0.00000000E+00 0.00000000E+00 0.00000000E+00 9.77117971E-01
29 10-9.77117949E-01-2.19491807E-08 0.00000000E+00 0.00000000E+00 0.00000000E+00
30  1-0.00000000E+00-0.00000000E+00-0.00000000E+00-0.00000000E+00-0.00000000E+00
30  2 6.63977024E-01-0.00000000E+00-0.00000000E+00-1.03419549E-01-0.00000000E+00
30  3-0.00000000E+00 5.14350549E-01-0.00000000E+00-0.00000000E+00-0.00000000E+00
30  4-0.00000000E+00-0.00000000E+00-0.00000000E+00-1.83277469E-01-0.00000000E+00
30  5-0.00000000E+00-0.00000000E+00-0.00000000E+00-0.00000000E+00 3.39941113E-01
30  6-0.00000000E+00-0.00000000E+00-0.00000000E+00-0.00000000E+00-0.00000000E+00
30  7-5.68150006E-01-0.00000000E+00-0.00000000E+00 7.57756816E-01-0.00000000E+00
30  8-0.00000000E+00-9.65210453E-01-0.00000000E+00-0.00000000E+00-0.00000000E+00
30  9-0.00000000E+00-0.00000000E+00-0.00000000E+00 2.20224641E-03-0.00000000E+00
30 10-0.00000000E+00-0.00000000E+00-0.00000000E+00-0.00000000E+00 9.81049709E-01
31  1-0.00000000E+00-0.00000000E+00-0.00000000E+00-0.00000000E+00 6.63977023E-01
31  2-0.00000000E+00-0.00000000E+00-1.03419547E-01-0.00000000E+00-0.00000000E+00
31  3 5.14350548E-01-0.00000000E+00-0.00000000E+00-0.00000000E+00-0.00000000E+00
31  4-0.00000000E+00-0.00000000E+00-1.83277469E-01-0.00000000E+00-0.00000000E+00
31  5-0.00000000E+00-0.00000000E+00-0.00000000E+00 3.39941113E-01-0.00000000E+00
31  6-0.00000000E+00-0.00000000E+00-0.00000000E+00-0.00000000E+00-5.68150006E-01
31  7-0.00000000E+00-0.00000000E+00 7.57756816E-01-0.00000000E+00-0.00000000E+00
31  8-9.65210453E-01-0.00000000E+00-0.00000000E+00-0.00000000E+00-0.00000000E+00
31  9-0.00000000E+00-0.00000000E+00 2.20224642E-03-0.00000000E+00-0.00000000E+00
31 10-0.00000000E+00-0.00000000E+00-0.00000000E+00 9.81049709E-01-0.00000000E+00
32  1-4.14855279E-01-1.77096167E+00 7.79024846E+00 2.84922615E+00 0.00000000E+00
32  2 0.00000000E+00 8.03338829E-01 0.00000000E+00 0.00000000E+00 2.93226061E+00
32  3 0.00000000E+00 0.00000000E+00 8.71409383E-01-1.30856534E-01-1.30856529E-01
32  4 2.61713063E-01 0.00000000E+00 0.00000000E+00 0.00000000E+00-3.64234704E-01
32  5-3.64234716E-01 7.28469420E-01 0.00000000E+00 0.00000000E+00 0.00000000E+00
32  6-1.81439695E-02-4.24864816E-01-2.48877198E+00-6.62421875E+00 0.00000000E+00
32  7 0.00000000E+00-7.86966546E-01 0.00000000E+00 0.00000000E+00 3.09464894E+00
32  8 0.00000000E+00 0.00000000E+00 8.74675314E-01 1.03384940E-02 1.03384957E-02
32  9-2.06769898E-02 0.00000000E+00 0.00000000E+00 0.00000000E+00-4.92190605E-02
32 10-4.92190476E-02 9.84381081E-02 0.00000000E+00 0.00000000E+00 0.00000000E+00
33  1 0.00000000E+00 0.00000000E+00 0.00000000E+00 0.00000000E+00 0.00000000E+00
33  2-6.23206514E-01 0.00000000E+00 0.00000000E+00-9.43522430E-01 0.00000000E+00
33  3 0.00000000E+00-8.19489385E-02 0.00000000E+00 0.00000000E+00 0.00000000E+00
33  4 0.00000000E+00 0.00000000E+00 0.00000000E+00 2.16181044E-01 0.00000000E+00
33  5 0.00000000E+00 0.00000000E+00 0.00000000E+00 0.00000000E+00-1.13669927E+00
33  6 0.00000000E+00 0.00000000E+00 0.00000000E+00 0.00000000E+00 0.00000000E+00
33  7-1.28272107E+00 0.00000000E+00 0.00000000E+00 2.69819780E+00 0.00000000E+00
33  8 0.00000000E+00 2.97769500E-01 0.00000000E+00 0.00000000E+00 0.00000000E+00
33  9 0.00000000E+00 0.00000000E+00 0.00000000E+00-2.59216707E-02 0.00000000E+00
33 10 0.00000000E+00 0.00000000E+00 0.00000000E+00 0.00000000E+00-7.90850420E-01
34  1 0.00000000E+00 0.00000000E+00 0.00000000E+00 0.00000000E+00-6.23206513E-01
34  2 0.00000000E+00 0.00000000E+00-9.43522430E-01 0.00000000E+00 0.00000000E+00
34  3-8.19489386E-02 0.00000000E+00 0.00000000E+00 0.00000000E+00 0.00000000E+00
34  4 0.00000000E+00 0.00000000E+00 2.16181044E-01 0.00000000E+00 0.00000000E+00
34  5 0.00000000E+00 0.00000000E+00 0.00000000E+00-1.13669927E+00 0.00000000E+00
34  6 0.00000000E+00 0.00000000E+00 0.00000000E+00 0.00000000E+00-1.28272107E+00
34  7 0.00000000E+00 0.00000000E+00 2.69819780E+00 0.00000000E+00 0.00000000E+00
34  8 2.97769500E-01 0.00000000E+00 0.00000000E+00 0.00000000E+00 0.00000000E+00
34  9 0.00000000E+00 0.00000000E+00-2.59216708E-02 0.00000000E+00 0.00000000E+00
34 10 0.00000000E+00 0.00000000E+00 0.00000000E+00-7.90850419E-01 0.00000000E+00
35  1-0.00000000E+00-0.00000000E+00-0.00000000E+00-0.00000000E+00-0.00000000E+00
35  2-0.00000000E+00-0.00000000E+00-0.00000000E+00-0.00000000E+00-0.00000000E+00
35  3-0.00000000E+00-0.00000000E+00-0.00000000E+00-0.00000000E+00-0.00000000E+00
35  4-0.00000000E+00 1.16581703E+00-0.00000000E+00-0.00000000E+00-0.00000000E+00
35  5-0.00000000E+00-0.00000000E+00-4.72082750E-01-0.00000000E+00-0.00000000E+00
35  6-0.00000000E+00-0.00000000E+00-0.00000000E+00-0.00000000E+00-0.00000000E+00
35  7-0.00000000E+00-0.00000000E+00-0.00000000E+00-0.00000000E+00-0.00000000E+00
35  8-0.00000000E+00-0.00000000E+00-0.00000000E+00-0.00000000E+00-0.00000000E+00
35  9-0.00000000E+00 3.88626583E-02-0.00000000E+00-0.00000000E+00-0.00000000E+00
35 10-0.00000000E+00-0.00000000E+00-2.56738878E-01-0.00000000E+00-0.00000000E+00
36  1-7.65264537E-10-8.83387234E-10-1.81117285E-08-7.02031933E-09-0.00000000E+00
36  2-0.00000000E+00-1.36098522E-10-0.00000000E+00-0.00000000E+00-7.72892603E-09
36  3-0.00000000E+00-0.00000000E+00-7.16635646E-10-1.00962716E+00 1.00962717E+00
36  4-4.78409910E-09-0.00000000E+00-0.00000000E+00-0.00000000E+00 4.08835653E-01
36  5-4.08835655E-01 1.84001928E-09-0.00000000E+00-0.00000000E+00-0.00000000E+00
36  6 2.87582420E-10 1.31947704E-09 5.79073811E-09 1.78442414E-08-0.00000000E+00
36  7-0.00000000E+00 4.07356035E-09-0.00000000E+00-0.00000000E+00-1.23210396E-08